Li16 Co16 O32
1.0
        8.2157249451         0.0000000000         0.0000000000
        0.0000000000         8.2157249451         0.0000000000
        0.0000000000         0.0000000000         8.2157249451
   Li   Co    O
   16   16   32
Direct
     0.375000000         0.875000000         0.125000000
     0.625000000         0.125000000         0.125000000
     0.375000000         0.125000000         0.875000000
     0.625000000         0.875000000         0.875000000
     0.375000000         0.375000000         0.625000000
     0.625000000         0.625000000         0.625000000
     0.375000000         0.625000000         0.375000000
     0.625000000         0.375000000         0.375000000
     0.875000000         0.875000000         0.625000000
     0.125000000         0.125000000         0.625000000
     0.875000000         0.125000000         0.375000000
     0.125000000         0.875000000         0.375000000
     0.875000000         0.375000000         0.125000000
     0.125000000         0.625000000         0.125000000
     0.875000000         0.625000000         0.875000000
     0.125000000         0.375000000         0.875000000
     0.625000000         0.125000000         0.625000000
     0.125000000         0.875000000         0.875000000
     0.875000000         0.125000000         0.875000000
     0.375000000         0.875000000         0.625000000
     0.625000000         0.625000000         0.125000000
     0.125000000         0.375000000         0.375000000
     0.875000000         0.625000000         0.375000000
     0.375000000         0.375000000         0.125000000
     0.125000000         0.125000000         0.125000000
     0.625000000         0.875000000         0.375000000
     0.375000000         0.125000000         0.375000000
     0.875000000         0.875000000         0.125000000
     0.125000000         0.625000000         0.625000000
     0.625000000         0.375000000         0.875000000
     0.375000000         0.625000000         0.875000000
     0.875000000         0.375000000         0.625000000
     0.883680642         0.116319329         0.116319329
     0.116319329         0.116319329         0.883680642
     0.616319358         0.883680642         0.616319358
     0.883680642         0.883680642         0.883680642
     0.366319329         0.866319358         0.866319358
     0.633680642         0.866319358         0.133680671
     0.133680671         0.633680642         0.866319358
     0.366319329         0.633680642         0.633680642
     0.883680642         0.616319358         0.616319358
     0.116319329         0.616319358         0.383680671
     0.616319358         0.383680671         0.116319329
     0.883680642         0.383680671         0.383680671
     0.366319329         0.366319329         0.366319329
     0.633680642         0.366319329         0.633680642
     0.133680671         0.133680671         0.366319329
     0.366319329         0.133680671         0.133680671
     0.383680671         0.116319329         0.616319358
     0.616319358         0.116319329         0.383680671
     0.116319329         0.883680642         0.116319329
     0.383680671         0.883680642         0.383680671
     0.866319358         0.866319358         0.366319329
     0.133680671         0.866319358         0.633680642
     0.633680642         0.633680642         0.366319329
     0.866319358         0.633680642         0.133680671
     0.383680671         0.616319358         0.116319329
     0.616319358         0.616319358         0.883680642
     0.116319329         0.383680671         0.616319358
     0.383680671         0.383680671         0.883680642
     0.866319358         0.366319329         0.866319358
     0.133680671         0.366319329         0.133680671
     0.633680642         0.133680671         0.866319358
     0.866319358         0.133680671         0.633680642
