Li576 Ti192 Mn192 O960
1.0
17.146428 -24.248711 0.000000
20.575714 0.000000 -11.879394
30.863570 0.000000 17.819090
Li Ti Mn O
576 192 192 960
direct
0.000000 0.000000 0.000000 Li+
0.000000 0.000000 0.500000 Li+
0.200000 1.000000 1.000000 Li+
0.200000 1.000000 0.500000 Li+
0.300000 0.000000 0.000000 Li+
0.300000 1.000000 0.500000 Li+
0.500000 0.000000 0.000000 Li+
0.500000 0.000000 0.500000 Li+
0.600000 0.000000 0.000000 Li+
0.600000 1.000000 0.500000 Li+
0.700000 0.000000 0.000000 Li+
0.700000 1.000000 0.500000 Li+
0.800000 1.000000 1.000000 Li+
0.800000 1.000000 0.500000 Li+
0.900000 0.000000 0.000000 Li+
0.900000 0.000000 0.500000 Li+
0.100000 0.125000 0.000000 Li+
0.100000 0.125000 0.500000 Li+
0.300000 0.125000 0.000000 Li+
0.300000 0.125000 0.500000 Li+
0.400000 0.125000 0.000000 Li+
0.400000 0.125000 0.500000 Li+
0.500000 0.125000 0.000000 Li+
0.500000 0.125000 0.500000 Li+
0.600000 0.125000 0.000000 Li+
0.600000 0.125000 0.500000 Li+
0.800000 0.125000 0.000000 Li+
0.800000 0.125000 0.500000 Li+
0.200000 0.250000 0.000000 Li+
0.200000 0.250000 0.500000 Li+
0.400000 0.250000 0.000000 Li+
0.400000 0.250000 0.500000 Li+
0.500000 0.250000 0.000000 Li+
0.500000 0.250000 0.500000 Li+
0.600000 0.250000 0.000000 Li+
0.600000 0.250000 0.500000 Li+
0.700000 0.250000 0.000000 Li+
0.700000 0.250000 0.500000 Li+
0.800000 0.250000 0.000000 Li+
0.800000 0.250000 0.500000 Li+
0.900000 0.250000 0.000000 Li+
0.900000 0.250000 0.500000 Li+
0.000000 0.375000 0.000000 Li+
0.000000 0.375000 0.500000 Li+
0.400000 0.375000 0.000000 Li+
0.400000 0.375000 0.500000 Li+
0.600000 0.375000 0.500000 Li+
0.600000 0.375000 0.000000 Li+
0.900000 0.375000 0.000000 Li+
0.900000 0.375000 0.500000 Li+
0.100000 0.500000 0.000000 Li+
0.100000 0.500000 0.500000 Li+
0.200000 0.500000 0.000000 Li+
0.200000 0.500000 0.500000 Li+
0.300000 0.500000 0.000000 Li+
0.300000 0.500000 0.500000 Li+
0.500000 0.500000 0.000000 Li+
0.500000 0.500000 0.500000 Li+
0.600000 0.500000 0.000000 Li+
0.600000 0.500000 0.500000 Li+
0.700000 0.500000 0.000000 Li+
0.700000 0.500000 0.500000 Li+
0.800000 0.500000 0.000000 Li+
0.800000 0.500000 0.500000 Li+
0.100000 0.625000 0.000000 Li+
0.100000 0.625000 0.500000 Li+
0.600000 0.625000 0.000000 Li+
0.600000 0.625000 0.500000 Li+
0.900000 0.625000 0.000000 Li+
0.900000 0.625000 0.500000 Li+
0.100000 0.750000 0.000000 Li+
0.100000 0.750000 0.500000 Li+
0.300000 0.750000 0.000000 Li+
0.300000 0.750000 0.500000 Li+
0.500000 0.750000 0.000000 Li+
0.500000 0.750000 0.500000 Li+
0.600000 0.750000 0.000000 Li+
0.600000 0.750000 0.500000 Li+
0.700000 0.750000 0.000000 Li+
0.700000 0.750000 0.500000 Li+
0.900000 0.750000 0.000000 Li+
0.900000 0.750000 0.500000 Li+
0.200000 0.875000 0.000000 Li+
0.200000 0.875000 0.500000 Li+
0.600000 0.875000 0.000000 Li+
0.600000 0.875000 0.500000 Li+
0.700000 0.875000 0.000000 Li+
0.700000 0.875000 0.500000 Li+
0.800000 0.875000 0.000000 Li+
0.800000 0.875000 0.500000 Li+
0.000000 0.000000 0.083334 Li+
0.000000 0.000000 0.583333 Li+
0.100000 1.000000 0.083334 Li+
0.100000 0.000000 0.583333 Li+
0.300000 0.000000 0.083334 Li+
0.300000 0.000000 0.583333 Li+
0.400000 1.000000 0.083334 Li+
0.400000 0.000000 0.583333 Li+
0.600000 0.000000 0.083334 Li+
0.600000 0.000000 0.583333 Li+
0.800000 0.000000 0.083334 Li+
0.800000 1.000000 0.583333 Li+
0.900000 0.000000 0.083334 Li+
0.900000 0.000000 0.583333 Li+
0.000000 0.125000 0.083334 Li+
0.000000 0.125000 0.583333 Li+
0.100000 0.125000 0.083334 Li+
0.100000 0.125000 0.583333 Li+
0.200000 0.125000 0.083334 Li+
0.200000 0.125000 0.583333 Li+
0.600000 0.125000 0.083334 Li+
0.600000 0.125000 0.583333 Li+
0.900000 0.125000 0.083334 Li+
0.900000 0.125000 0.583333 Li+
0.200000 0.250000 0.083334 Li+
0.200000 0.250000 0.583333 Li+
0.300000 0.250000 0.083334 Li+
0.300000 0.250000 0.583333 Li+
0.400000 0.250000 0.083334 Li+
0.400000 0.250000 0.583333 Li+
0.600000 0.250000 0.083334 Li+
0.600000 0.250000 0.583334 Li+
0.800000 0.250000 0.083334 Li+
0.800000 0.250000 0.583333 Li+
0.000000 0.375000 0.083334 Li+
0.000000 0.375000 0.583334 Li+
0.200000 0.375000 0.083334 Li+
0.200000 0.375000 0.583334 Li+
0.600000 0.375000 0.083334 Li+
0.600000 0.375000 0.583334 Li+
0.700000 0.375000 0.083334 Li+
0.700000 0.375000 0.583334 Li+
0.900000 0.375000 0.083334 Li+
0.900000 0.375000 0.583334 Li+
0.000000 0.500000 0.083334 Li+
0.000000 0.500000 0.583334 Li+
0.200000 0.500000 0.083334 Li+
0.200000 0.500000 0.583333 Li+
0.300000 0.500000 0.083334 Li+
0.300000 0.500000 0.583333 Li+
0.400000 0.500000 0.083334 Li+
0.400000 0.500000 0.583334 Li+
0.600000 0.500000 0.083334 Li+
0.600000 0.500000 0.583334 Li+
0.700000 0.500000 0.083334 Li+
0.700000 0.500000 0.583334 Li+
0.800000 0.500000 0.083334 Li+
0.800000 0.500000 0.583333 Li+
0.900000 0.500000 0.083334 Li+
0.900000 0.500000 0.583334 Li+
0.000000 0.625000 0.083334 Li+
0.000000 0.625000 0.583334 Li+
0.100000 0.625000 0.083334 Li+
0.100000 0.625000 0.583334 Li+
0.200000 0.625000 0.083334 Li+
0.200000 0.625000 0.583334 Li+
0.300000 0.625000 0.083334 Li+
0.300000 0.625000 0.583334 Li+
0.400000 0.625000 0.083334 Li+
0.400000 0.625000 0.583333 Li+
0.700000 0.625000 0.083334 Li+
0.700000 0.625000 0.583334 Li+
0.900000 0.625000 0.083334 Li+
0.900000 0.625000 0.583334 Li+
0.000000 0.750000 0.083334 Li+
0.000000 0.750000 0.583334 Li+
0.100000 0.750000 0.083334 Li+
0.100000 0.750000 0.583334 Li+
0.200000 0.750000 0.083334 Li+
0.200000 0.750000 0.583334 Li+
0.300000 0.750000 0.083334 Li+
0.300000 0.750000 0.583334 Li+
0.400000 0.750000 0.083334 Li+
0.400000 0.750000 0.583334 Li+
0.500000 0.750000 0.083334 Li+
0.500000 0.750000 0.583334 Li+
0.600000 0.750000 0.083334 Li+
0.600000 0.750000 0.583334 Li+
0.700000 0.750000 0.083334 Li+
0.700000 0.750000 0.583334 Li+
0.900000 0.750000 0.083334 Li+
0.900000 0.750000 0.583333 Li+
0.100000 0.875000 0.083334 Li+
0.100000 0.875000 0.583334 Li+
0.300000 0.875000 0.083334 Li+
0.300000 0.875000 0.583334 Li+
0.400000 0.875000 0.083334 Li+
0.400000 0.875000 0.583334 Li+
0.800000 0.875000 0.083334 Li+
0.800000 0.875000 0.583334 Li+
0.900000 0.875000 0.083334 Li+
0.900000 0.875000 0.583334 Li+
0.100000 0.000000 0.166666 Li+
0.100000 1.000000 0.666667 Li+
0.400000 1.000000 0.166666 Li+
0.400000 0.000000 0.666667 Li+
0.500000 0.000000 0.166666 Li+
0.500000 0.000000 0.666667 Li+
0.600000 0.000000 0.166667 Li+
0.600000 1.000000 0.666667 Li+
0.700000 0.000000 0.166667 Li+
0.700000 1.000000 0.666667 Li+
0.800000 0.000000 0.166666 Li+
0.800000 1.000000 0.666667 Li+
0.100000 0.125000 0.166667 Li+
0.100000 0.125000 0.666666 Li+
0.200000 0.125000 0.166667 Li+
0.200000 0.125000 0.666666 Li+
0.400000 0.125000 0.166667 Li+
0.400000 0.125000 0.666667 Li+
0.600000 0.125000 0.166667 Li+
0.600000 0.125000 0.666667 Li+
0.800000 0.125000 0.166666 Li+
0.800000 0.125000 0.666666 Li+
0.000000 0.250000 0.166667 Li+
0.000000 0.250000 0.666667 Li+
0.300000 0.250000 0.166667 Li+
0.300000 0.250000 0.666667 Li+
0.500000 0.250000 0.166667 Li+
0.500000 0.250000 0.666667 Li+
0.600000 0.250000 0.166667 Li+
0.600000 0.250000 0.666667 Li+
0.700000 0.250000 0.166667 Li+
0.700000 0.250000 0.666667 Li+
0.900000 0.250000 0.166667 Li+
0.900000 0.250000 0.666667 Li+
0.000000 0.375000 0.166666 Li+
0.000000 0.375000 0.666667 Li+
0.100000 0.375000 0.166666 Li+
0.100000 0.375000 0.666667 Li+
0.300000 0.375000 0.166666 Li+
0.300000 0.375000 0.666667 Li+
0.400000 0.375000 0.166666 Li+
0.400000 0.375000 0.666667 Li+
0.600000 0.375000 0.166667 Li+
0.600000 0.375000 0.666667 Li+
0.800000 0.375000 0.166667 Li+
0.800000 0.375000 0.666667 Li+
0.100000 0.500000 0.166666 Li+
0.100000 0.500000 0.666667 Li+
0.400000 0.500000 0.166667 Li+
0.400000 0.500000 0.666667 Li+
0.500000 0.500000 0.166667 Li+
0.500000 0.500000 0.666666 Li+
0.700000 0.500000 0.166667 Li+
0.700000 0.500000 0.666667 Li+
0.900000 0.500000 0.166667 Li+
0.900000 0.500000 0.666667 Li+
0.000000 0.625000 0.166667 Li+
0.000000 0.625000 0.666667 Li+
0.500000 0.625000 0.166667 Li+
0.500000 0.625000 0.666667 Li+
0.800000 0.625000 0.166667 Li+
0.800000 0.625000 0.666667 Li+
0.100000 0.750000 0.166667 Li+
0.100000 0.750000 0.666667 Li+
0.200000 0.750000 0.166666 Li+
0.200000 0.750000 0.666667 Li+
0.500000 0.750000 0.166667 Li+
0.500000 0.750000 0.666667 Li+
0.600000 0.750000 0.166667 Li+
0.600000 0.750000 0.666667 Li+
0.700000 0.750000 0.166666 Li+
0.700000 0.750000 0.666667 Li+
0.800000 0.750000 0.166666 Li+
0.800000 0.750000 0.666666 Li+
0.900000 0.750000 0.166666 Li+
0.900000 0.750000 0.666667 Li+
0.200000 0.875000 0.166667 Li+
0.200000 0.875000 0.666667 Li+
0.300000 0.875000 0.166667 Li+
0.300000 0.875000 0.666667 Li+
0.500000 0.875000 0.166667 Li+
0.500000 0.875000 0.666667 Li+
0.600000 0.875000 0.166667 Li+
0.600000 0.875000 0.666667 Li+
0.700000 0.875000 0.166667 Li+
0.700000 0.875000 0.666667 Li+
0.000000 0.000000 0.250000 Li+
0.000000 0.000000 0.750000 Li+
0.200000 1.000000 0.250000 Li+
0.200000 0.000000 0.750000 Li+
0.300000 1.000000 0.250000 Li+
0.300000 0.000000 0.750000 Li+
0.500000 0.000000 0.250000 Li+
0.500000 1.000000 0.750000 Li+
0.600000 0.000000 0.250000 Li+
0.600000 0.000000 0.750000 Li+
0.800000 1.000000 0.250000 Li+
0.800000 0.000000 0.750000 Li+
0.900000 0.000000 0.250000 Li+
0.900000 0.000000 0.750000 Li+
0.100000 0.125000 0.250000 Li+
0.100000 0.125000 0.750000 Li+
0.200000 0.125000 0.250000 Li+
0.200000 0.125000 0.750000 Li+
0.300000 0.125000 0.250000 Li+
0.300000 0.125000 0.750000 Li+
0.400000 0.125000 0.250000 Li+
0.400000 0.125000 0.750000 Li+
0.600000 0.125000 0.250000 Li+
0.600000 0.125000 0.750000 Li+
0.700000 0.125000 0.250000 Li+
0.700000 0.125000 0.750000 Li+
0.900000 0.125000 0.250000 Li+
0.900000 0.125000 0.750000 Li+
0.100000 0.250000 0.250000 Li+
0.100000 0.250000 0.750000 Li+
0.400000 0.250000 0.250000 Li+
0.400000 0.250000 0.750000 Li+
0.500000 0.250000 0.250000 Li+
0.500000 0.250000 0.750000 Li+
0.900000 0.250000 0.250000 Li+
0.900000 0.250000 0.750000 Li+
0.100000 0.375000 0.250000 Li+
0.100000 0.375000 0.750000 Li+
0.200000 0.375000 0.250000 Li+
0.200000 0.375000 0.750000 Li+
0.300000 0.375000 0.250000 Li+
0.300000 0.375000 0.750000 Li+
0.600000 0.375000 0.250000 Li+
0.600000 0.375000 0.750000 Li+
0.700000 0.375000 0.250000 Li+
0.700000 0.375000 0.750000 Li+
0.900000 0.375000 0.250000 Li+
0.900000 0.375000 0.750000 Li+
0.000000 0.500000 0.250000 Li+
0.000000 0.500000 0.750000 Li+
0.100000 0.500000 0.250000 Li+
0.100000 0.500000 0.750000 Li+
0.200000 0.500000 0.250000 Li+
0.200000 0.500000 0.750000 Li+
0.300000 0.500000 0.250000 Li+
0.300000 0.500000 0.750000 Li+
0.400000 0.500000 0.250000 Li+
0.400000 0.500000 0.750000 Li+
0.600000 0.500000 0.250000 Li+
0.600000 0.500000 0.750000 Li+
0.700000 0.500000 0.250000 Li+
0.700000 0.500000 0.750000 Li+
0.800000 0.500000 0.250000 Li+
0.800000 0.500000 0.750000 Li+
0.900000 0.500000 0.250000 Li+
0.900000 0.500000 0.750000 Li+
0.100000 0.625000 0.250000 Li+
0.100000 0.625000 0.750000 Li+
0.200000 0.625000 0.250000 Li+
0.200000 0.625000 0.750000 Li+
0.300000 0.625000 0.250000 Li+
0.300000 0.625000 0.750000 Li+
0.400000 0.625000 0.250000 Li+
0.400000 0.625000 0.750000 Li+
0.500000 0.625000 0.250000 Li+
0.500000 0.625000 0.750000 Li+
0.600000 0.625000 0.250000 Li+
0.600000 0.625000 0.750000 Li+
0.700000 0.625000 0.250000 Li+
0.700000 0.625000 0.750000 Li+
0.900000 0.625000 0.250000 Li+
0.900000 0.625000 0.750000 Li+
0.000000 0.750000 0.250000 Li+
0.000000 0.750000 0.750000 Li+
0.100000 0.750000 0.250000 Li+
0.100000 0.750000 0.750000 Li+
0.300000 0.750000 0.250000 Li+
0.300000 0.750000 0.750000 Li+
0.400000 0.750000 0.250000 Li+
0.400000 0.750000 0.750000 Li+
0.500000 0.750000 0.250000 Li+
0.500000 0.750000 0.750000 Li+
0.600000 0.750000 0.250000 Li+
0.600000 0.750000 0.750000 Li+
0.800000 0.750000 0.250000 Li+
0.800000 0.750000 0.750000 Li+
0.200000 0.875000 0.250000 Li+
0.200000 0.875000 0.750000 Li+
0.300000 0.875000 0.250000 Li+
0.300000 0.875000 0.750000 Li+
0.700000 0.875000 0.250000 Li+
0.700000 0.875000 0.750000 Li+
0.800000 0.875000 0.250000 Li+
0.800000 0.875000 0.750000 Li+
0.900000 0.875000 0.250000 Li+
0.900000 0.875000 0.750000 Li+
0.000000 0.000000 0.333334 Li+
0.000000 0.000000 0.833334 Li+
0.400000 0.000000 0.333333 Li+
0.400000 0.000000 0.833333 Li+
0.500000 0.000000 0.333334 Li+
0.500000 0.000000 0.833334 Li+
0.600000 0.000000 0.333334 Li+
0.600000 0.000000 0.833334 Li+
0.700000 0.000000 0.333334 Li+
0.700000 0.000000 0.833334 Li+
0.900000 0.000000 0.333334 Li+
0.900000 0.000000 0.833334 Li+
0.000000 0.125000 0.333334 Li+
0.000000 0.125000 0.833334 Li+
0.200000 0.125000 0.333334 Li+
0.200000 0.125000 0.833334 Li+
0.300000 0.125000 0.333334 Li+
0.300000 0.125000 0.833334 Li+
0.600000 0.125000 0.333334 Li+
0.600000 0.125000 0.833334 Li+
0.700000 0.125000 0.333334 Li+
0.700000 0.125000 0.833334 Li+
0.900000 0.125000 0.333334 Li+
0.900000 0.125000 0.833334 Li+
0.100000 0.250000 0.333334 Li+
0.100000 0.250000 0.833334 Li+
0.300000 0.250000 0.333334 Li+
0.300000 0.250000 0.833334 Li+
0.400000 0.250000 0.333334 Li+
0.400000 0.250000 0.833334 Li+
0.600000 0.250000 0.333334 Li+
0.600000 0.250000 0.833334 Li+
0.700000 0.250000 0.333334 Li+
0.700000 0.250000 0.833334 Li+
0.800000 0.250000 0.333334 Li+
0.800000 0.250000 0.833334 Li+
0.900000 0.250000 0.333334 Li+
0.900000 0.250000 0.833334 Li+
0.200000 0.375000 0.333334 Li+
0.200000 0.375000 0.833333 Li+
0.400000 0.375000 0.333334 Li+
0.400000 0.375000 0.833334 Li+
0.500000 0.375000 0.333334 Li+
0.500000 0.375000 0.833334 Li+
0.700000 0.375000 0.333334 Li+
0.700000 0.375000 0.833334 Li+
0.900000 0.375000 0.333334 Li+
0.900000 0.375000 0.833334 Li+
0.000000 0.500000 0.333334 Li+
0.000000 0.500000 0.833334 Li+
0.100000 0.500000 0.333334 Li+
0.100000 0.500000 0.833334 Li+
0.300000 0.500000 0.333334 Li+
0.300000 0.500000 0.833334 Li+
0.600000 0.500000 0.333334 Li+
0.600000 0.500000 0.833334 Li+
0.700000 0.500000 0.333334 Li+
0.700000 0.500000 0.833334 Li+
0.800000 0.500000 0.333334 Li+
0.800000 0.500000 0.833334 Li+
0.200000 0.625000 0.333334 Li+
0.200000 0.625000 0.833334 Li+
0.400000 0.625000 0.333334 Li+
0.400000 0.625000 0.833334 Li+
0.800000 0.625000 0.333334 Li+
0.800000 0.625000 0.833333 Li+
0.900000 0.625000 0.333334 Li+
0.900000 0.625000 0.833334 Li+
0.000000 0.750000 0.333334 Li+
0.000000 0.750000 0.833334 Li+
0.100000 0.750000 0.333334 Li+
0.100000 0.750000 0.833334 Li+
0.200000 0.750000 0.333334 Li+
0.200000 0.750000 0.833333 Li+
0.500000 0.750000 0.333334 Li+
0.500000 0.750000 0.833333 Li+
0.600000 0.750000 0.333334 Li+
0.600000 0.750000 0.833334 Li+
0.700000 0.750000 0.333334 Li+
0.700000 0.750000 0.833334 Li+
0.900000 0.750000 0.333334 Li+
0.900000 0.750000 0.833334 Li+
0.300000 0.875000 0.333334 Li+
0.300000 0.875000 0.833334 Li+
0.400000 0.875000 0.333334 Li+
0.400000 0.875000 0.833333 Li+
0.700000 0.875000 0.333334 Li+
0.700000 0.875000 0.833334 Li+
0.800000 0.875000 0.333334 Li+
0.800000 0.875000 0.833334 Li+
0.900000 0.875000 0.333334 Li+
0.900000 0.875000 0.833334 Li+
0.000000 0.000000 0.416666 Li+
0.000000 0.000000 0.916666 Li+
0.100000 0.000000 0.416667 Li+
0.100000 1.000000 0.916667 Li+
0.200000 1.000000 0.416667 Li+
0.200000 1.000000 0.916666 Li+
0.300000 1.000000 0.416666 Li+
0.300000 0.000000 0.916666 Li+
0.400000 1.000000 0.416666 Li+
0.400000 0.000000 0.916667 Li+
0.500000 0.000000 0.416667 Li+
0.500000 1.000000 0.916667 Li+
0.700000 0.000000 0.416667 Li+
0.700000 1.000000 0.916666 Li+
0.900000 1.000000 0.416666 Li+
0.900000 0.000000 0.916666 Li+
0.000000 0.125000 0.416666 Li+
0.000000 0.125000 0.916667 Li+
0.400000 0.125000 0.416666 Li+
0.400000 0.125000 0.916667 Li+
0.500000 0.125000 0.416667 Li+
0.500000 0.125000 0.916666 Li+
0.700000 0.125000 0.416667 Li+
0.700000 0.125000 0.916667 Li+
0.000000 0.250000 0.416666 Li+
0.000000 0.250000 0.916667 Li+
0.100000 0.250000 0.416666 Li+
0.100000 0.250000 0.916667 Li+
0.200000 0.250000 0.416666 Li+
0.200000 0.250000 0.916667 Li+
0.400000 0.250000 0.416666 Li+
0.400000 0.250000 0.916667 Li+
0.700000 0.250000 0.416666 Li+
0.700000 0.250000 0.916667 Li+
0.900000 0.250000 0.416667 Li+
0.900000 0.250000 0.916667 Li+
0.100000 0.375000 0.416666 Li+
0.100000 0.375000 0.916667 Li+
0.300000 0.375000 0.416666 Li+
0.300000 0.375000 0.916667 Li+
0.400000 0.375000 0.416666 Li+
0.400000 0.375000 0.916667 Li+
0.500000 0.375000 0.416666 Li+
0.500000 0.375000 0.916667 Li+
0.800000 0.375000 0.416667 Li+
0.800000 0.375000 0.916667 Li+
0.900000 0.375000 0.416666 Li+
0.900000 0.375000 0.916667 Li+
0.100000 0.500000 0.416666 Li+
0.100000 0.500000 0.916667 Li+
0.200000 0.500000 0.416666 Li+
0.200000 0.500000 0.916667 Li+
0.400000 0.500000 0.416667 Li+
0.400000 0.500000 0.916667 Li+
0.500000 0.500000 0.416667 Li+
0.500000 0.500000 0.916667 Li+
0.600000 0.500000 0.416667 Li+
0.600000 0.500000 0.916667 Li+
0.700000 0.500000 0.416667 Li+
0.700000 0.500000 0.916667 Li+
0.900000 0.500000 0.416667 Li+
0.900000 0.500000 0.916667 Li+
0.000000 0.625000 0.416667 Li+
0.000000 0.625000 0.916666 Li+
0.200000 0.625000 0.416667 Li+
0.200000 0.625000 0.916667 Li+
0.300000 0.625000 0.416667 Li+
0.300000 0.625000 0.916667 Li+
0.400000 0.625000 0.416667 Li+
0.400000 0.625000 0.916667 Li+
0.500000 0.625000 0.416667 Li+
0.500000 0.625000 0.916666 Li+
0.800000 0.625000 0.416667 Li+
0.800000 0.625000 0.916667 Li+
0.900000 0.625000 0.416667 Li+
0.900000 0.625000 0.916667 Li+
0.000000 0.750000 0.416667 Li+
0.000000 0.750000 0.916667 Li+
0.100000 0.750000 0.416666 Li+
0.100000 0.750000 0.916667 Li+
0.300000 0.750000 0.416666 Li+
0.300000 0.750000 0.916667 Li+
0.400000 0.750000 0.416667 Li+
0.400000 0.750000 0.916666 Li+
0.500000 0.750000 0.416666 Li+
0.500000 0.750000 0.916667 Li+
0.600000 0.750000 0.416666 Li+
0.600000 0.750000 0.916667 Li+
0.700000 0.750000 0.416667 Li+
0.700000 0.750000 0.916667 Li+
0.800000 0.750000 0.416666 Li+
0.800000 0.750000 0.916667 Li+
0.100000 0.875000 0.416667 Li+
0.100000 0.875000 0.916667 Li+
0.200000 0.875000 0.416666 Li+
0.200000 0.875000 0.916667 Li+
0.500000 0.875000 0.416667 Li+
0.500000 0.875000 0.916667 Li+
0.900000 0.875000 0.416667 Li+
0.900000 0.875000 0.916667 Li+
0.100000 1.000000 1.000000 Ti4+
0.100000 1.000000 0.500000 Ti4+
0.400000 1.000000 1.000000 Ti4+
0.400000 1.000000 0.500000 Ti4+
0.900000 0.125000 0.000000 Ti4+
0.900000 0.125000 0.500000 Ti4+
0.000000 0.250000 0.000000 Ti4+
0.000000 0.250000 0.500000 Ti4+
0.700000 0.375000 0.000000 Ti4+
0.700000 0.375000 0.500000 Ti4+
0.800000 0.375000 0.000000 Ti4+
0.800000 0.375000 0.500000 Ti4+
0.400000 0.500000 0.000000 Ti4+
0.400000 0.500000 0.500000 Ti4+
0.000000 0.625000 0.000000 Ti4+
0.000000 0.625000 0.500000 Ti4+
0.200000 0.625000 0.000000 Ti4+
0.200000 0.625000 0.500000 Ti4+
0.500000 0.625000 0.000000 Ti4+
0.500000 0.625000 0.500000 Ti4+
0.700000 0.625000 0.000000 Ti4+
0.700000 0.625000 0.500000 Ti4+
0.200000 0.750000 0.000000 Ti4+
0.200000 0.750000 0.500000 Ti4+
0.300000 0.875000 0.000000 Ti4+
0.300000 0.875000 0.500000 Ti4+
0.400000 0.875000 0.000000 Ti4+
0.400000 0.875000 0.500000 Ti4+
0.500000 0.875000 0.000000 Ti4+
0.500000 0.875000 0.500000 Ti4+
0.900000 0.875000 0.000000 Ti4+
0.900000 0.875000 0.500000 Ti4+
0.200000 1.000000 0.083334 Ti4+
0.200000 0.000000 0.583333 Ti4+
0.700000 0.000000 0.083334 Ti4+
0.700000 0.000000 0.583333 Ti4+
0.400000 0.125000 0.083333 Ti4+
0.400000 0.125000 0.583333 Ti4+
0.800000 0.125000 0.083334 Ti4+
0.800000 0.125000 0.583333 Ti4+
0.500000 0.250000 0.083334 Ti4+
0.500000 0.250000 0.583333 Ti4+
0.700000 0.250000 0.083334 Ti4+
0.700000 0.250000 0.583334 Ti4+
0.300000 0.375000 0.083334 Ti4+
0.300000 0.375000 0.583334 Ti4+
0.100000 0.500000 0.083334 Ti4+
0.100000 0.500000 0.583333 Ti4+
0.500000 0.500000 0.083334 Ti4+
0.500000 0.500000 0.583333 Ti4+
0.600000 0.625000 0.083334 Ti4+
0.600000 0.625000 0.583334 Ti4+
0.800000 0.750000 0.083334 Ti4+
0.800000 0.750000 0.583334 Ti4+
0.500000 0.875000 0.083334 Ti4+
0.500000 0.875000 0.583334 Ti4+
0.600000 0.875000 0.083334 Ti4+
0.600000 0.875000 0.583334 Ti4+
0.700000 0.875000 0.083334 Ti4+
0.700000 0.875000 0.583334 Ti4+
0.200000 0.000000 0.166666 Ti4+
0.200000 1.000000 0.666667 Ti4+
0.000000 0.125000 0.166666 Ti4+
0.000000 0.125000 0.666667 Ti4+
0.300000 0.125000 0.166667 Ti4+
0.300000 0.125000 0.666667 Ti4+
0.500000 0.125000 0.166667 Ti4+
0.500000 0.125000 0.666666 Ti4+
0.700000 0.125000 0.166667 Ti4+
0.700000 0.125000 0.666667 Ti4+
0.900000 0.375000 0.166667 Ti4+
0.900000 0.375000 0.666667 Ti4+
0.200000 0.500000 0.166667 Ti4+
0.200000 0.500000 0.666666 Ti4+
0.600000 0.500000 0.166667 Ti4+
0.600000 0.500000 0.666667 Ti4+
0.800000 0.500000 0.166667 Ti4+
0.800000 0.500000 0.666667 Ti4+
0.100000 0.625000 0.166667 Ti4+
0.100000 0.625000 0.666667 Ti4+
0.200000 0.625000 0.166667 Ti4+
0.200000 0.625000 0.666667 Ti4+
0.400000 0.625000 0.166667 Ti4+
0.400000 0.625000 0.666667 Ti4+
0.700000 0.625000 0.166667 Ti4+
0.700000 0.625000 0.666667 Ti4+
0.900000 0.625000 0.166667 Ti4+
0.900000 0.625000 0.666667 Ti4+
0.300000 0.750000 0.166667 Ti4+
0.300000 0.750000 0.666667 Ti4+
0.400000 0.750000 0.166667 Ti4+
0.400000 0.750000 0.666667 Ti4+
0.900000 0.875000 0.166667 Ti4+
0.900000 0.875000 0.666667 Ti4+
0.700000 0.000000 0.250000 Ti4+
0.700000 0.000000 0.750000 Ti4+
0.500000 0.125000 0.250000 Ti4+
0.500000 0.125000 0.750000 Ti4+
0.800000 0.125000 0.250000 Ti4+
0.800000 0.125000 0.750000 Ti4+
0.300000 0.250000 0.250000 Ti4+
0.300000 0.250000 0.750000 Ti4+
0.000000 0.375000 0.250000 Ti4+
0.000000 0.375000 0.750000 Ti4+
0.400000 0.375000 0.250000 Ti4+
0.400000 0.375000 0.750000 Ti4+
0.800000 0.375000 0.250000 Ti4+
0.800000 0.375000 0.750000 Ti4+
0.000000 0.625000 0.250000 Ti4+
0.000000 0.625000 0.750000 Ti4+
0.800000 0.625000 0.250000 Ti4+
0.800000 0.625000 0.750000 Ti4+
0.700000 0.750000 0.250000 Ti4+
0.700000 0.750000 0.750000 Ti4+
0.500000 0.875000 0.250000 Ti4+
0.500000 0.875000 0.750000 Ti4+
0.600000 0.875000 0.250000 Ti4+
0.600000 0.875000 0.750000 Ti4+
0.300000 0.000000 0.333334 Ti4+
0.300000 0.000000 0.833334 Ti4+
0.800000 1.000000 0.333333 Ti4+
0.800000 0.000000 0.833334 Ti4+
0.100000 0.125000 0.333334 Ti4+
0.100000 0.125000 0.833334 Ti4+
0.400000 0.125000 0.333334 Ti4+
0.400000 0.125000 0.833334 Ti4+
0.500000 0.125000 0.333334 Ti4+
0.500000 0.125000 0.833334 Ti4+
0.800000 0.125000 0.333334 Ti4+
0.800000 0.125000 0.833334 Ti4+
0.000000 0.250000 0.333334 Ti4+
0.000000 0.250000 0.833334 Ti4+
0.000000 0.375000 0.333334 Ti4+
0.000000 0.375000 0.833333 Ti4+
0.100000 0.375000 0.333334 Ti4+
0.100000 0.375000 0.833334 Ti4+
0.800000 0.375000 0.333334 Ti4+
0.800000 0.375000 0.833334 Ti4+
0.200000 0.500000 0.333334 Ti4+
0.200000 0.500000 0.833333 Ti4+
0.500000 0.500000 0.333334 Ti4+
0.500000 0.500000 0.833334 Ti4+
0.100000 0.625000 0.333334 Ti4+
0.100000 0.625000 0.833333 Ti4+
0.500000 0.625000 0.333334 Ti4+
0.500000 0.625000 0.833334 Ti4+
0.600000 0.625000 0.333334 Ti4+
0.600000 0.625000 0.833333 Ti4+
0.700000 0.625000 0.333334 Ti4+
0.700000 0.625000 0.833334 Ti4+
0.300000 0.750000 0.333334 Ti4+
0.300000 0.750000 0.833334 Ti4+
0.400000 0.750000 0.333334 Ti4+
0.400000 0.750000 0.833333 Ti4+
0.800000 0.750000 0.333334 Ti4+
0.800000 0.750000 0.833333 Ti4+
0.600000 0.000000 0.416667 Ti4+
0.600000 0.000000 0.916666 Ti4+
0.600000 0.125000 0.416666 Ti4+
0.600000 0.125000 0.916667 Ti4+
0.800000 0.125000 0.416666 Ti4+
0.800000 0.125000 0.916667 Ti4+
0.900000 0.125000 0.416667 Ti4+
0.900000 0.125000 0.916667 Ti4+
0.300000 0.250000 0.416666 Ti4+
0.300000 0.250000 0.916667 Ti4+
0.500000 0.250000 0.416666 Ti4+
0.500000 0.250000 0.916667 Ti4+
0.600000 0.250000 0.416666 Ti4+
0.600000 0.250000 0.916667 Ti4+
0.600000 0.375000 0.416667 Ti4+
0.600000 0.375000 0.916667 Ti4+
0.700000 0.375000 0.416666 Ti4+
0.700000 0.375000 0.916667 Ti4+
0.300000 0.500000 0.416666 Ti4+
0.300000 0.500000 0.916667 Ti4+
0.100000 0.625000 0.416666 Ti4+
0.100000 0.625000 0.916667 Ti4+
0.600000 0.625000 0.416667 Ti4+
0.600000 0.625000 0.916667 Ti4+
0.700000 0.625000 0.416667 Ti4+
0.700000 0.625000 0.916667 Ti4+
0.200000 0.750000 0.416666 Ti4+
0.200000 0.750000 0.916667 Ti4+
0.900000 0.750000 0.416667 Ti4+
0.900000 0.750000 0.916667 Ti4+
0.000000 0.875000 0.416667 Ti4+
0.000000 0.875000 0.916667 Ti4+
0.600000 0.875000 0.416667 Ti4+
0.600000 0.875000 0.916667 Ti4+
0.700000 0.875000 0.416667 Ti4+
0.700000 0.875000 0.916667 Ti4+
0.000000 0.125000 0.000000 Mn3+
0.000000 0.125000 0.500000 Mn3+
0.200000 0.125000 0.000000 Mn3+
0.200000 0.125000 0.500000 Mn3+
0.700000 0.125000 0.000000 Mn3+
0.700000 0.125000 0.500000 Mn3+
0.100000 0.250000 0.000000 Mn3+
0.100000 0.250000 0.500000 Mn3+
0.300000 0.250000 0.000000 Mn3+
0.300000 0.250000 0.500000 Mn3+
0.100000 0.375000 0.000000 Mn3+
0.100000 0.375000 0.500000 Mn3+
0.200000 0.375000 0.000000 Mn3+
0.200000 0.375000 0.500000 Mn3+
0.300000 0.375000 0.000000 Mn3+
0.300000 0.375000 0.500000 Mn3+
0.500000 0.375000 0.000000 Mn3+
0.500000 0.375000 0.500000 Mn3+
0.000000 0.500000 0.000000 Mn3+
0.000000 0.500000 0.500000 Mn3+
0.900000 0.500000 0.000000 Mn3+
0.900000 0.500000 0.500000 Mn3+
0.300000 0.625000 0.500000 Mn3+
0.300000 0.625000 0.000000 Mn3+
0.400000 0.625000 0.000000 Mn3+
0.400000 0.625000 0.500000 Mn3+
0.800000 0.625000 0.000000 Mn3+
0.800000 0.625000 0.500000 Mn3+
0.000000 0.750000 0.000000 Mn3+
0.000000 0.750000 0.500000 Mn3+
0.400000 0.750000 0.000000 Mn3+
0.400000 0.750000 0.500000 Mn3+
0.800000 0.750000 0.000000 Mn3+
0.800000 0.750000 0.500000 Mn3+
0.000000 0.875000 0.000000 Mn3+
0.000000 0.875000 0.500000 Mn3+
0.100000 0.875000 0.000000 Mn3+
0.100000 0.875000 0.500000 Mn3+
0.500000 0.000000 0.083334 Mn3+
0.500000 0.000000 0.583333 Mn3+
0.300000 0.125000 0.083334 Mn3+
0.300000 0.125000 0.583333 Mn3+
0.500000 0.125000 0.083334 Mn3+
0.500000 0.125000 0.583333 Mn3+
0.700000 0.125000 0.083334 Mn3+
0.700000 0.125000 0.583334 Mn3+
0.000000 0.250000 0.083334 Mn3+
0.000000 0.250000 0.583333 Mn3+
0.100000 0.250000 0.083334 Mn3+
0.100000 0.250000 0.583333 Mn3+
0.900000 0.250000 0.083334 Mn3+
0.900000 0.250000 0.583334 Mn3+
0.100000 0.375000 0.083334 Mn3+
0.100000 0.375000 0.583334 Mn3+
0.400000 0.375000 0.083333 Mn3+
0.400000 0.375000 0.583333 Mn3+
0.500000 0.375000 0.083334 Mn3+
0.500000 0.375000 0.583334 Mn3+
0.800000 0.375000 0.083334 Mn3+
0.800000 0.375000 0.583334 Mn3+
0.500000 0.625000 0.083334 Mn3+
0.500000 0.625000 0.583334 Mn3+
0.800000 0.625000 0.083334 Mn3+
0.800000 0.625000 0.583334 Mn3+
0.000000 0.875000 0.083334 Mn3+
0.000000 0.875000 0.583334 Mn3+
0.200000 0.875000 0.083334 Mn3+
0.200000 0.875000 0.583334 Mn3+
0.000000 0.000000 0.166666 Mn3+
0.000000 1.000000 0.666667 Mn3+
0.300000 0.000000 0.166667 Mn3+
0.300000 1.000000 0.666667 Mn3+
0.900000 0.000000 0.166667 Mn3+
0.900000 0.000000 0.666667 Mn3+
0.900000 0.125000 0.166667 Mn3+
0.900000 0.125000 0.666667 Mn3+
0.100000 0.250000 0.166667 Mn3+
0.100000 0.250000 0.666667 Mn3+
0.200000 0.250000 0.166667 Mn3+
0.200000 0.250000 0.666667 Mn3+
0.400000 0.250000 0.166667 Mn3+
0.400000 0.250000 0.666667 Mn3+
0.800000 0.250000 0.166667 Mn3+
0.800000 0.250000 0.666667 Mn3+
0.200000 0.375000 0.166666 Mn3+
0.200000 0.375000 0.666667 Mn3+
0.500000 0.375000 0.166667 Mn3+
0.500000 0.375000 0.666667 Mn3+
0.700000 0.375000 0.166667 Mn3+
0.700000 0.375000 0.666667 Mn3+
0.000000 0.500000 0.166666 Mn3+
0.000000 0.500000 0.666667 Mn3+
0.300000 0.500000 0.166666 Mn3+
0.300000 0.500000 0.666667 Mn3+
0.300000 0.625000 0.166667 Mn3+
0.300000 0.625000 0.666667 Mn3+
0.600000 0.625000 0.166667 Mn3+
0.600000 0.625000 0.666667 Mn3+
0.000000 0.750000 0.166667 Mn3+
0.000000 0.750000 0.666667 Mn3+
0.000000 0.875000 0.166667 Mn3+
0.000000 0.875000 0.666667 Mn3+
0.100000 0.875000 0.166667 Mn3+
0.100000 0.875000 0.666667 Mn3+
0.400000 0.875000 0.166667 Mn3+
0.400000 0.875000 0.666667 Mn3+
0.800000 0.875000 0.166666 Mn3+
0.800000 0.875000 0.666667 Mn3+
0.100000 1.000000 0.250000 Mn3+
0.100000 0.000000 0.750000 Mn3+
0.400000 1.000000 0.250000 Mn3+
0.400000 0.000000 0.750000 Mn3+
0.000000 0.125000 0.250000 Mn3+
0.000000 0.125000 0.750000 Mn3+
0.000000 0.250000 0.250000 Mn3+
0.000000 0.250000 0.750000 Mn3+
0.200000 0.250000 0.250000 Mn3+
0.200000 0.250000 0.750000 Mn3+
0.600000 0.250000 0.250000 Mn3+
0.600000 0.250000 0.750000 Mn3+
0.700000 0.250000 0.250000 Mn3+
0.700000 0.250000 0.750000 Mn3+
0.800000 0.250000 0.250000 Mn3+
0.800000 0.250000 0.750000 Mn3+
0.500000 0.375000 0.250000 Mn3+
0.500000 0.375000 0.750000 Mn3+
0.500000 0.500000 0.250000 Mn3+
0.500000 0.500000 0.750000 Mn3+
0.200000 0.750000 0.250000 Mn3+
0.200000 0.750000 0.750000 Mn3+
0.900000 0.750000 0.250000 Mn3+
0.900000 0.750000 0.750000 Mn3+
0.000000 0.875000 0.250000 Mn3+
0.000000 0.875000 0.750000 Mn3+
0.100000 0.875000 0.250000 Mn3+
0.100000 0.875000 0.750000 Mn3+
0.400000 0.875000 0.250000 Mn3+
0.400000 0.875000 0.750000 Mn3+
0.100000 0.000000 0.333334 Mn3+
0.100000 0.000000 0.833333 Mn3+
0.200000 0.000000 0.333334 Mn3+
0.200000 0.000000 0.833334 Mn3+
0.200000 0.250000 0.333334 Mn3+
0.200000 0.250000 0.833333 Mn3+
0.500000 0.250000 0.333334 Mn3+
0.500000 0.250000 0.833334 Mn3+
0.300000 0.375000 0.333334 Mn3+
0.300000 0.375000 0.833333 Mn3+
0.600000 0.375000 0.333334 Mn3+
0.600000 0.375000 0.833334 Mn3+
0.400000 0.500000 0.333334 Mn3+
0.400000 0.500000 0.833334 Mn3+
0.900000 0.500000 0.333334 Mn3+
0.900000 0.500000 0.833334 Mn3+
0.000000 0.625000 0.333334 Mn3+
0.000000 0.625000 0.833333 Mn3+
0.300000 0.625000 0.333334 Mn3+
0.300000 0.625000 0.833334 Mn3+
0.000000 0.875000 0.333334 Mn3+
0.000000 0.875000 0.833334 Mn3+
0.100000 0.875000 0.333334 Mn3+
0.100000 0.875000 0.833334 Mn3+
0.200000 0.875000 0.333334 Mn3+
0.200000 0.875000 0.833334 Mn3+
0.500000 0.875000 0.333334 Mn3+
0.500000 0.875000 0.833334 Mn3+
0.600000 0.875000 0.333334 Mn3+
0.600000 0.875000 0.833334 Mn3+
0.800000 0.000000 0.416666 Mn3+
0.800000 0.000000 0.916666 Mn3+
0.100000 0.125000 0.416666 Mn3+
0.100000 0.125000 0.916667 Mn3+
0.200000 0.125000 0.416667 Mn3+
0.200000 0.125000 0.916666 Mn3+
0.300000 0.125000 0.416666 Mn3+
0.300000 0.125000 0.916667 Mn3+
0.800000 0.250000 0.416666 Mn3+
0.800000 0.250000 0.916667 Mn3+
0.000000 0.375000 0.416666 Mn3+
0.000000 0.375000 0.916667 Mn3+
0.200000 0.375000 0.416666 Mn3+
0.200000 0.375000 0.916666 Mn3+