Li864 Ti288 Mn288 O1440
1.0
10.287857 -14.549227 -17.819091
17.146428 12.124356 0.000000
20.575714 -29.098454 35.638182
Li Ti Mn O
864 288 288 1440
direct
0.833333 1.000000 0.500000 Li+
0.833333 1.000000 0.000000 Li+
0.916667 1.000000 0.041667 Li+
0.916667 1.000000 0.541667 Li+
0.666667 1.000000 0.000000 Li+
0.666667 0.000000 0.500000 Li+
0.750000 1.000000 0.041667 Li+
0.750000 1.000000 0.541667 Li+
0.916667 1.000000 0.125000 Li+
0.916667 0.000000 0.625000 Li+
0.750000 0.100000 0.500000 Li+
0.750000 0.100000 0.000000 Li+
0.833333 0.100000 0.041667 Li+
0.833333 0.100000 0.541667 Li+
0.916667 0.100000 0.083334 Li+
0.916667 0.100000 0.583334 Li+
0.833333 0.200000 0.500000 Li+
0.833333 0.200000 0.000000 Li+
0.916667 0.300000 0.500000 Li+
0.916667 0.300000 0.000000 Li+
0.500000 1.000000 0.500000 Li+
0.500000 0.000000 0.000000 Li+
0.666667 0.000000 0.083334 Li+
0.666667 0.000000 0.583333 Li+
0.833333 0.000000 0.166666 Li+
0.833333 1.000000 0.666667 Li+
0.750000 0.100000 0.083333 Li+
0.750000 0.100000 0.583333 Li+
0.916667 0.100000 0.166667 Li+
0.916667 0.100000 0.666667 Li+
0.666667 0.200000 0.500000 Li+
0.666667 0.200000 0.000000 Li+
0.833333 0.200000 0.083334 Li+
0.833333 0.200000 0.583333 Li+
0.916667 0.200000 0.125000 Li+
0.916667 0.200000 0.625000 Li+
0.833333 0.300000 0.041666 Li+
0.833333 0.300000 0.541667 Li+
0.916667 0.400000 0.041666 Li+
0.916667 0.400000 0.541666 Li+
0.333333 0.000000 0.000000 Li+
0.333333 0.000000 0.500000 Li+
0.416667 1.000000 0.041666 Li+
0.416667 1.000000 0.541667 Li+
0.583333 1.000000 0.125000 Li+
0.583333 1.000000 0.625000 Li+
0.666667 1.000000 0.166666 Li+
0.666667 1.000000 0.666667 Li+
0.750000 1.000000 0.208333 Li+
0.750000 0.000000 0.708333 Li+
0.916667 1.000000 0.291667 Li+
0.916667 0.000000 0.791667 Li+
0.500000 0.100000 0.041666 Li+
0.500000 0.100000 0.541667 Li+
0.583333 0.100000 0.083334 Li+
0.583333 0.100000 0.583333 Li+
0.666667 0.100000 0.125000 Li+
0.666667 0.100000 0.625000 Li+
0.750000 0.100000 0.166666 Li+
0.750000 0.100000 0.666666 Li+
0.833333 0.100000 0.208334 Li+
0.833333 0.100000 0.708333 Li+
0.916667 0.100000 0.250000 Li+
0.916667 0.100000 0.750000 Li+
0.500000 0.200000 0.500000 Li+
0.500000 0.200000 0.000000 Li+
0.583333 0.200000 0.041666 Li+
0.583333 0.200000 0.541666 Li+
0.750000 0.200000 0.125000 Li+
0.750000 0.200000 0.625000 Li+
0.833333 0.200000 0.166666 Li+
0.833333 0.200000 0.666667 Li+
0.666667 0.300000 0.041666 Li+
0.666667 0.300000 0.541666 Li+
0.750000 0.300000 0.083333 Li+
0.750000 0.300000 0.583333 Li+
0.916667 0.300000 0.166666 Li+
0.916667 0.300000 0.666667 Li+
0.666667 0.400000 0.500000 Li+
0.666667 0.400000 0.000000 Li+
0.833333 0.400000 0.083333 Li+
0.833333 0.400000 0.583333 Li+
0.916667 0.400000 0.125000 Li+
0.916667 0.400000 0.625000 Li+
0.750000 0.500000 0.000000 Li+
0.750000 0.500000 0.500000 Li+
0.833333 0.500000 0.041666 Li+
0.833333 0.500000 0.541666 Li+
0.833333 0.600000 0.500000 Li+
0.833333 0.600000 0.000000 Li+
0.916667 0.700000 1.000000 Li+
0.916667 0.700000 0.500000 Li+
0.166667 1.000000 0.000000 Li+
0.166667 1.000000 0.500000 Li+
0.333333 1.000000 0.083334 Li+
0.333333 1.000000 0.583333 Li+
0.500000 1.000000 0.166667 Li+
0.500000 1.000000 0.666667 Li+
0.583333 1.000000 0.208334 Li+
0.583333 1.000000 0.708333 Li+
0.833333 1.000000 0.333334 Li+
0.833333 1.000000 0.833333 Li+
0.916667 0.000000 0.375000 Li+
0.916667 0.000000 0.875000 Li+
0.250000 0.100000 0.500000 Li+
0.250000 0.100000 0.000000 Li+
0.333333 0.100000 0.041666 Li+
0.333333 0.100000 0.541667 Li+
0.416667 0.100000 0.083334 Li+
0.416667 0.100000 0.583333 Li+
0.750000 0.100000 0.250000 Li+
0.750000 0.100000 0.750000 Li+
0.500000 0.200000 0.083334 Li+
0.500000 0.200000 0.583333 Li+
0.583333 0.200000 0.125000 Li+
0.583333 0.200000 0.625000 Li+
0.666667 0.200000 0.166666 Li+
0.666667 0.200000 0.666667 Li+
0.833333 0.200000 0.250000 Li+
0.833333 0.200000 0.750000 Li+
0.916667 0.200000 0.291667 Li+
0.916667 0.200000 0.791667 Li+
0.416667 0.300000 0.500000 Li+
0.416667 0.300000 0.000000 Li+
0.666667 0.300000 0.125000 Li+
0.666667 0.300000 0.625000 Li+
0.833333 0.300000 0.208334 Li+
0.833333 0.300000 0.708333 Li+
0.500000 0.400000 0.500000 Li+
0.500000 0.400000 0.000000 Li+
0.583333 0.400000 0.041666 Li+
0.583333 0.400000 0.541667 Li+
0.750000 0.400000 0.125000 Li+
0.750000 0.400000 0.625000 Li+
0.916667 0.400000 0.208333 Li+
0.916667 0.400000 0.708333 Li+
0.666667 0.500000 0.041666 Li+
0.666667 0.500000 0.541666 Li+
0.750000 0.500000 0.083333 Li+
0.750000 0.500000 0.583334 Li+
0.916667 0.500000 0.166667 Li+
0.916667 0.500000 0.666667 Li+
0.833333 0.600000 0.083333 Li+
0.833333 0.600000 0.583333 Li+
0.916667 0.600000 0.125000 Li+
0.916667 0.600000 0.625000 Li+
0.750000 0.700000 1.000000 Li+
0.750000 0.700000 0.500000 Li+
0.833333 0.800000 0.500000 Li+
0.833333 0.800000 0.000000 Li+
0.916667 0.800000 0.041666 Li+
0.916667 0.800000 0.541666 Li+
0.916667 0.900000 0.500000 Li+
0.916667 0.900000 0.000000 Li+
0.250000 1.000000 0.125000 Li+
0.250000 1.000000 0.625000 Li+
0.333333 0.000000 0.166666 Li+
0.333333 1.000000 0.666667 Li+
0.416667 0.000000 0.208334 Li+
0.416667 0.000000 0.708333 Li+
0.583333 0.000000 0.291666 Li+
0.583333 1.000000 0.791667 Li+
0.916667 0.000000 0.458333 Li+
0.916667 0.000000 0.958334 Li+
0.083333 0.100000 1.000000 Li+
0.083333 0.100000 0.500000 Li+
0.166667 0.100000 0.041666 Li+
0.166667 0.100000 0.541667 Li+
0.333333 0.100000 0.125000 Li+
0.333333 0.100000 0.625000 Li+
0.416667 0.100000 0.166666 Li+
0.416667 0.100000 0.666667 Li+
0.500000 0.100000 0.208334 Li+
0.500000 0.100000 0.708333 Li+
0.666667 0.100000 0.291666 Li+
0.666667 0.100000 0.791667 Li+
0.750000 0.100000 0.333334 Li+
0.750000 0.100000 0.833334 Li+
0.916667 0.100000 0.416666 Li+
0.916667 0.100000 0.916667 Li+
0.250000 0.200000 0.041667 Li+
0.250000 0.200000 0.541667 Li+
0.333333 0.200000 0.083334 Li+
0.333333 0.200000 0.583333 Li+
0.500000 0.200000 0.166667 Li+
0.500000 0.200000 0.666666 Li+
0.666667 0.200000 0.250000 Li+
0.666667 0.200000 0.750000 Li+
0.833333 0.200000 0.333334 Li+
0.833333 0.200000 0.833333 Li+
0.916667 0.200000 0.375000 Li+
0.916667 0.200000 0.875000 Li+
0.250000 0.300000 1.000000 Li+
0.250000 0.300000 0.500000 Li+
0.333333 0.300000 0.041666 Li+
0.333333 0.300000 0.541666 Li+
0.416667 0.300000 0.083334 Li+
0.416667 0.300000 0.583333 Li+
0.500000 0.300000 0.125000 Li+
0.500000 0.300000 0.625000 Li+
0.583333 0.300000 0.166666 Li+
0.583333 0.300000 0.666667 Li+
0.750000 0.300000 0.250000 Li+
0.750000 0.300000 0.750000 Li+
0.333333 0.400000 1.000000 Li+
0.333333 0.400000 0.500000 Li+
0.500000 0.400000 0.083334 Li+
0.500000 0.400000 0.583333 Li+
0.583333 0.400000 0.125000 Li+
0.583333 0.400000 0.625000 Li+
0.750000 0.400000 0.208333 Li+
0.750000 0.400000 0.708334 Li+
0.916667 0.400000 0.291667 Li+
0.916667 0.400000 0.791667 Li+
0.416667 0.500000 0.500000 Li+
0.416667 0.500000 0.000000 Li+
0.666667 0.500000 0.125000 Li+
0.666667 0.500000 0.625000 Li+
0.750000 0.500000 0.166666 Li+
0.750000 0.500000 0.666666 Li+
0.833333 0.500000 0.208334 Li+
0.833333 0.500000 0.708333 Li+
0.916667 0.500000 0.250000 Li+
0.916667 0.500000 0.750000 Li+
0.583333 0.600000 0.041666 Li+
0.583333 0.600000 0.541666 Li+
0.583333 0.700000 0.500000 Li+
0.583333 0.700000 0.000000 Li+
0.666667 0.700000 0.041666 Li+
0.666667 0.700000 0.541666 Li+
0.750000 0.700000 0.083333 Li+
0.750000 0.700000 0.583333 Li+
0.833333 0.700000 0.125000 Li+
0.833333 0.700000 0.625000 Li+
0.916667 0.700000 0.166667 Li+
0.916667 0.700000 0.666667 Li+
0.666667 0.800000 1.000000 Li+
0.666667 0.800000 0.500000 Li+
0.833333 0.800000 0.083333 Li+
0.833333 0.800000 0.583333 Li+
0.916667 0.800000 0.125000 Li+
0.916667 0.800000 0.625000 Li+
0.833333 0.900000 0.041666 Li+
0.833333 0.900000 0.541666 Li+
0.000000 1.000000 0.083334 Li+
1.000000 1.000000 0.583333 Li+
0.083333 0.000000 0.125000 Li+
0.083333 0.000000 0.625000 Li+
0.166667 1.000000 0.166666 Li+
0.166667 1.000000 0.666667 Li+
0.333333 1.000000 0.250000 Li+
0.333333 1.000000 0.750000 Li+
0.416667 1.000000 0.291666 Li+
0.416667 1.000000 0.791667 Li+
0.500000 1.000000 0.333333 Li+
0.500000 0.000000 0.833333 Li+
0.583333 0.000000 0.375000 Li+
0.583333 1.000000 0.875000 Li+
0.666667 1.000000 0.416666 Li+
0.666667 1.000000 0.916667 Li+
0.750000 0.000000 0.458333 Li+
0.750000 0.000000 0.958333 Li+
0.083333 0.100000 0.083334 Li+
0.083333 0.100000 0.583333 Li+
0.250000 0.100000 0.166666 Li+
0.250000 0.100000 0.666667 Li+
0.416667 0.100000 0.250000 Li+
0.416667 0.100000 0.750000 Li+
0.666667 0.100000 0.375000 Li+
0.666667 0.100000 0.875000 Li+
0.750000 0.100000 0.416666 Li+
0.750000 0.100000 0.916666 Li+
0.000000 0.200000 0.500000 Li+
0.000000 0.200000 0.000000 Li+
0.166667 0.200000 0.083334 Li+
0.166667 0.200000 0.583333 Li+
0.250000 0.200000 0.125000 Li+
0.250000 0.200000 0.625000 Li+
0.583333 0.200000 0.291666 Li+
0.583333 0.200000 0.791666 Li+
0.833333 0.200000 0.416666 Li+
0.833333 0.200000 0.916667 Li+
0.083333 0.300000 0.500000 Li+
0.083333 0.300000 1.000000 Li+
0.500000 0.300000 0.208333 Li+
0.500000 0.300000 0.708333 Li+
0.583333 0.300000 0.250000 Li+
0.583333 0.300000 0.750000 Li+
0.750000 0.300000 0.333334 Li+
0.750000 0.300000 0.833333 Li+
0.916667 0.300000 0.416666 Li+
0.916667 0.300000 0.916667 Li+
0.166667 0.400000 0.500000 Li+
0.166667 0.400000 0.000000 Li+
0.250000 0.400000 0.041666 Li+
0.250000 0.400000 0.541666 Li+
0.416667 0.400000 0.125000 Li+
0.416667 0.400000 0.625000 Li+
0.583333 0.400000 0.208333 Li+
0.583333 0.400000 0.708333 Li+
0.666667 0.400000 0.250000 Li+
0.666667 0.400000 0.750000 Li+
0.750000 0.400000 0.291666 Li+
0.750000 0.400000 0.791666 Li+
0.833333 0.400000 0.333334 Li+
0.833333 0.400000 0.833333 Li+
0.916667 0.400000 0.375000 Li+
0.916667 0.400000 0.875000 Li+
0.333333 0.500000 0.041666 Li+
0.333333 0.500000 0.541666 Li+
0.416667 0.500000 0.083333 Li+
0.416667 0.500000 0.583333 Li+
0.500000 0.500000 0.125000 Li+
0.500000 0.500000 0.625000 Li+
0.583333 0.500000 0.166666 Li+
0.583333 0.500000 0.666666 Li+
0.833333 0.500000 0.291666 Li+
0.833333 0.500000 0.791666 Li+
0.333333 0.600000 0.500000 Li+
0.333333 0.600000 0.000000 Li+
0.500000 0.600000 0.083333 Li+
0.500000 0.600000 0.583333 Li+
0.583333 0.600000 0.125000 Li+
0.583333 0.600000 0.625000 Li+
0.666667 0.600000 0.166666 Li+
0.666667 0.600000 0.666666 Li+
0.750000 0.600000 0.208333 Li+
0.750000 0.600000 0.708333 Li+
0.833333 0.600000 0.250000 Li+
0.833333 0.600000 0.750000 Li+
0.916667 0.600000 0.291667 Li+
0.916667 0.600000 0.791667 Li+
0.416667 0.700000 0.500000 Li+
0.416667 0.700000 0.000000 Li+
0.500000 0.700000 0.041666 Li+
0.500000 0.700000 0.541666 Li+
0.666667 0.700000 0.125000 Li+
0.666667 0.700000 0.625000 Li+
0.750000 0.700000 0.166666 Li+
0.750000 0.700000 0.666667 Li+
0.833333 0.700000 0.208334 Li+
0.833333 0.700000 0.708333 Li+
0.916667 0.700000 0.250000 Li+
0.916667 0.700000 0.750000 Li+
0.583333 0.800000 0.041666 Li+
0.583333 0.800000 0.541666 Li+
0.916667 0.800000 0.208333 Li+
0.916667 0.800000 0.708333 Li+
0.666667 0.900000 0.041666 Li+
0.666667 0.900000 0.541666 Li+
0.750000 0.900000 0.083333 Li+
0.750000 0.900000 0.583333 Li+
0.833333 0.900000 0.125000 Li+
0.833333 0.900000 0.625000 Li+
0.000000 0.000000 0.166666 Li+
0.000000 0.000000 0.666667 Li+
0.166667 1.000000 0.250000 Li+
0.166667 0.000000 0.750000 Li+
0.250000 1.000000 0.291667 Li+
0.250000 1.000000 0.791667 Li+
0.333333 1.000000 0.333334 Li+
0.333333 1.000000 0.833333 Li+
0.416667 1.000000 0.375000 Li+
0.416667 0.000000 0.875000 Li+
0.583333 1.000000 0.458333 Li+
0.583333 0.000000 0.958333 Li+
0.083333 0.100000 0.166666 Li+
0.083333 0.100000 0.666667 Li+
0.166667 0.100000 0.208334 Li+
0.166667 0.100000 0.708333 Li+
0.416667 0.100000 0.333334 Li+
0.416667 0.100000 0.833334 Li+
0.500000 0.100000 0.375000 Li+
0.500000 0.100000 0.875000 Li+
1.000000 0.200000 0.083334 Li+
1.000000 0.200000 0.583333 Li+
0.083333 0.200000 0.125000 Li+
0.083333 0.200000 0.625000 Li+
0.250000 0.200000 0.208334 Li+
0.250000 0.200000 0.708333 Li+
0.333333 0.200000 0.250000 Li+
0.333333 0.200000 0.750000 Li+
0.416667 0.200000 0.291666 Li+
0.416667 0.200000 0.791667 Li+
0.500000 0.200000 0.333333 Li+
0.500000 0.200000 0.833334 Li+
0.666667 0.200000 0.416666 Li+
0.666667 0.200000 0.916667 Li+
0.750000 0.200000 0.458333 Li+
0.750000 0.200000 0.958334 Li+
1.000000 0.300000 0.041666 Li+
0.000000 0.300000 0.541667 Li+
0.083333 0.300000 0.083333 Li+
0.083333 0.300000 0.583333 Li+
0.166667 0.300000 0.125000 Li+
0.166667 0.300000 0.625000 Li+
0.250000 0.300000 0.166667 Li+
0.250000 0.300000 0.666667 Li+
0.333333 0.300000 0.208334 Li+
0.333333 0.300000 0.708333 Li+
0.583333 0.300000 0.333334 Li+
0.583333 0.300000 0.833333 Li+
0.666667 0.300000 0.375000 Li+
0.666667 0.300000 0.875000 Li+
0.833333 0.300000 0.458334 Li+
0.833333 0.300000 0.958333 Li+
0.166667 0.400000 0.083333 Li+
0.166667 0.400000 0.583333 Li+
0.333333 0.400000 0.166666 Li+
0.333333 0.400000 0.666667 Li+
0.500000 0.400000 0.250000 Li+
0.500000 0.400000 0.750000 Li+
0.916667 0.400000 0.458333 Li+
0.916667 0.400000 0.958333 Li+
0.083333 0.500000 0.500000 Li+
0.083333 0.500000 1.000000 Li+
0.166667 0.500000 0.041666 Li+
0.166667 0.500000 0.541667 Li+
0.333333 0.500000 0.125000 Li+
0.333333 0.500000 0.625000 Li+
0.666667 0.500000 0.291666 Li+
0.666667 0.500000 0.791667 Li+
0.750000 0.500000 0.333334 Li+
0.750000 0.500000 0.833334 Li+
0.833333 0.500000 0.375000 Li+
0.833333 0.500000 0.875000 Li+
0.916667 0.500000 0.416666 Li+
0.916667 0.500000 0.916667 Li+
0.250000 0.600000 0.041666 Li+
0.250000 0.600000 0.541666 Li+
0.500000 0.600000 0.166666 Li+
0.500000 0.600000 0.666666 Li+
0.666667 0.600000 0.250000 Li+
0.666667 0.600000 0.750000 Li+
0.916667 0.600000 0.375000 Li+
0.916667 0.600000 0.875000 Li+
0.250000 0.700000 0.500000 Li+
0.250000 0.700000 0.000000 Li+
0.416667 0.700000 0.083333 Li+
0.416667 0.700000 0.583333 Li+
0.916667 0.700000 0.333333 Li+
0.916667 0.700000 0.833333 Li+
0.416667 0.800000 0.041666 Li+
0.416667 0.800000 0.541666 Li+
0.583333 0.800000 0.125000 Li+
0.583333 0.800000 0.625000 Li+
0.666667 0.800000 0.166666 Li+
0.666667 0.800000 0.666666 Li+
0.833333 0.800000 0.250000 Li+
0.833333 0.800000 0.750000 Li+
0.916667 0.800000 0.291666 Li+
0.916667 0.800000 0.791666 Li+
0.500000 0.900000 0.041666 Li+
0.500000 0.900000 0.541666 Li+
0.583333 0.900000 0.083333 Li+
0.583333 0.900000 0.583333 Li+
0.750000 0.900000 0.166666 Li+
0.750000 0.900000 0.666666 Li+
0.833333 0.900000 0.208333 Li+
0.833333 0.900000 0.708333 Li+
0.000000 1.000000 0.250000 Li+
0.000000 1.000000 0.750000 Li+
0.250000 1.000000 0.375000 Li+
0.250000 1.000000 0.875000 Li+
0.166667 0.100000 0.291666 Li+
0.166667 0.100000 0.791667 Li+
0.250000 0.100000 0.333334 Li+
0.250000 0.100000 0.833333 Li+
0.416667 0.100000 0.416666 Li+
0.416667 0.100000 0.916667 Li+
0.500000 0.100000 0.458333 Li+
0.500000 0.100000 0.958334 Li+
0.083333 0.200000 0.208334 Li+
0.083333 0.200000 0.708333 Li+
0.166667 0.200000 0.250000 Li+
0.166667 0.200000 0.750000 Li+
0.333333 0.200000 0.333334 Li+
0.333333 0.200000 0.833333 Li+
0.583333 0.200000 0.458333 Li+
0.583333 0.200000 0.958333 Li+
1.000000 0.300000 0.125000 Li+
0.000000 0.300000 0.625000 Li+
0.083333 0.300000 0.166666 Li+
0.083333 0.300000 0.666666 Li+
0.250000 0.300000 0.250000 Li+
0.250000 0.300000 0.750000 Li+
0.333333 0.300000 0.291666 Li+
0.333333 0.300000 0.791667 Li+
0.416667 0.300000 0.333333 Li+
0.416667 0.300000 0.833334 Li+
0.500000 0.300000 0.375000 Li+
0.500000 0.300000 0.875000 Li+
0.583333 0.300000 0.416666 Li+
0.583333 0.300000 0.916666 Li+
1.000000 0.400000 0.083333 Li+
1.000000 0.400000 0.583333 Li+
0.166667 0.400000 0.166666 Li+
0.166667 0.400000 0.666667 Li+
0.416667 0.400000 0.291666 Li+
0.416667 0.400000 0.791666 Li+
0.500000 0.400000 0.333333 Li+
0.500000 0.400000 0.833334 Li+
0.583333 0.400000 0.375000 Li+
0.583333 0.400000 0.875000 Li+
0.666667 0.400000 0.416666 Li+
0.666667 0.400000 0.916667 Li+
0.750000 0.400000 0.458333 Li+
0.750000 0.400000 0.958334 Li+
1.000000 0.500000 0.041666 Li+
1.000000 0.500000 0.541667 Li+
0.083333 0.500000 0.083333 Li+
0.083333 0.500000 0.583333 Li+
0.250000 0.500000 0.166666 Li+
0.250000 0.500000 0.666667 Li+
0.333333 0.500000 0.208334 Li+
0.333333 0.500000 0.708333 Li+
0.416667 0.500000 0.250000 Li+
0.416667 0.500000 0.750000 Li+
0.500000 0.500000 0.291666 Li+
0.500000 0.500000 0.791666 Li+
0.583333 0.500000 0.333334 Li+
0.583333 0.500000 0.833333 Li+
0.750000 0.500000 0.416666 Li+
0.750000 0.500000 0.916666 Li+
0.833333 0.500000 0.458334 Li+
0.833333 0.500000 0.958333 Li+
1.000000 0.600000 1.000000 Li+
0.000000 0.600000 0.500000 Li+
0.166667 0.600000 0.083333 Li+
0.166667 0.600000 0.583333 Li+
0.250000 0.600000 0.125000 Li+
0.250000 0.600000 0.625000 Li+
0.333333 0.600000 0.166666 Li+
0.333333 0.600000 0.666666 Li+
0.416667 0.600000 0.208333 Li+
0.416667 0.600000 0.708333 Li+
0.500000 0.600000 0.250000 Li+
0.500000 0.600000 0.750000 Li+
0.583333 0.600000 0.291666 Li+
0.583333 0.600000 0.791667 Li+
0.666667 0.600000 0.333333 Li+
0.666667 0.600000 0.833333 Li+
0.833333 0.600000 0.416666 Li+
0.833333 0.600000 0.916667 Li+
0.916667 0.600000 0.458333 Li+
0.916667 0.600000 0.958333 Li+
0.166667 0.700000 0.041666 Li+
0.166667 0.700000 0.541667 Li+
0.333333 0.700000 0.125000 Li+
0.333333 0.700000 0.625000 Li+
0.416667 0.700000 0.166666 Li+
0.416667 0.700000 0.666667 Li+
0.500000 0.700000 0.208333 Li+
0.500000 0.700000 0.708333 Li+
0.583333 0.700000 0.250000 Li+
0.583333 0.700000 0.750000 Li+
0.666667 0.700000 0.291666 Li+
0.666667 0.700000 0.791667 Li+
0.750000 0.700000 0.333334 Li+
0.750000 0.700000 0.833334 Li+
0.833333 0.700000 0.375000 Li+
0.833333 0.700000 0.875000 Li+
0.166667 0.800000 0.500000 Li+
0.166667 0.800000 0.000000 Li+
0.250000 0.800000 0.041666 Li+
0.250000 0.800000 0.541666 Li+
0.333333 0.800000 0.083333 Li+
0.333333 0.800000 0.583333 Li+
0.416667 0.800000 0.125000 Li+
0.416667 0.800000 0.625000 Li+
0.583333 0.800000 0.208333 Li+
0.583333 0.800000 0.708333 Li+
0.666667 0.800000 0.250000 Li+
0.666667 0.800000 0.750000 Li+
0.750000 0.800000 0.291666 Li+
0.750000 0.800000 0.791666 Li+
0.916667 0.800000 0.375000 Li+
0.916667 0.800000 0.875000 Li+
0.416667 0.900000 0.083333 Li+
0.416667 0.900000 0.583333 Li+
0.500000 0.900000 0.125000 Li+
0.500000 0.900000 0.625000 Li+
0.583333 0.900000 0.166666 Li+
0.583333 0.900000 0.666666 Li+
0.750000 0.900000 0.250000 Li+
0.750000 0.900000 0.750000 Li+
0.833333 0.900000 0.291666 Li+
0.833333 0.900000 0.791666 Li+
0.000000 1.000000 0.333334 Li+
1.000000 0.000000 0.833333 Li+
0.083333 1.000000 0.375000 Li+
0.083333 1.000000 0.875000 Li+
0.166667 1.000000 0.416666 Li+
0.166667 1.000000 0.916667 Li+
0.000000 0.100000 0.291666 Li+
0.000000 0.100000 0.791667 Li+
0.083333 0.100000 0.333334 Li+
0.083333 0.100000 0.833333 Li+
0.166667 0.100000 0.375000 Li+
0.166667 0.100000 0.875000 Li+
0.333333 0.100000 0.458333 Li+
0.333333 0.100000 0.958333 Li+
0.000000 0.200000 0.250000 Li+
0.000000 0.200000 0.750000 Li+
0.083333 0.200000 0.291666 Li+
0.083333 0.200000 0.791666 Li+
0.250000 0.200000 0.375000 Li+
0.250000 0.200000 0.875000 Li+
0.333333 0.200000 0.416666 Li+
0.333333 0.200000 0.916667 Li+
0.416667 0.200000 0.458333 Li+
0.416667 0.200000 0.958333 Li+
0.083333 0.300000 0.250000 Li+
0.083333 0.300000 0.750000 Li+
0.166667 0.300000 0.291666 Li+
0.166667 0.300000 0.791667 Li+
0.333333 0.300000 0.375000 Li+
0.333333 0.300000 0.875000 Li+
0.500000 0.300000 0.458333 Li+
0.500000 0.300000 0.958333 Li+
0.083333 0.400000 0.208334 Li+
0.083333 0.400000 0.708333 Li+
0.166667 0.400000 0.250000 Li+
0.166667 0.400000 0.750000 Li+
0.250000 0.400000 0.291666 Li+
0.250000 0.400000 0.791666 Li+
0.583333 0.400000 0.458333 Li+
0.583333 0.400000 0.958333 Li+
0.166667 0.500000 0.208334 Li+
0.166667 0.500000 0.708333 Li+
0.416667 0.500000 0.333333 Li+
0.416667 0.500000 0.833333 Li+
1.000000 0.600000 0.083333 Li+
1.000000 0.600000 0.583333 Li+
0.083333 0.600000 0.125000 Li+
0.083333 0.600000 0.625000 Li+
0.583333 0.600000 0.375000 Li+
0.583333 0.600000 0.875000 Li+
0.666667 0.600000 0.416666 Li+
0.666667 0.600000 0.916667 Li+
1.000000 0.700000 0.041666 Li+
1.000000 0.700000 0.541667 Li+
0.083333 0.700000 0.083333 Li+
0.083333 0.700000 0.583333 Li+
0.166667 0.700000 0.125000 Li+
0.166667 0.700000 0.625000 Li+
0.416667 0.700000 0.250000 Li+
0.416667 0.700000 0.750000 Li+
0.666667 0.700000 0.375000 Li+
0.666667 0.700000 0.875000 Li+
0.750000 0.700000 0.416666 Li+
0.750000 0.700000 0.916667 Li+
0.083333 0.800000 0.041666 Li+
0.083333 0.800000 0.541666 Li+
0.250000 0.800000 0.125000 Li+
0.250000 0.800000 0.625000 Li+
0.333333 0.800000 0.166666 Li+
0.333333 0.800000 0.666666 Li+
0.416667 0.800000 0.208333 Li+
0.416667 0.800000 0.708333 Li+
0.833333 0.800000 0.416666 Li+
0.833333 0.800000 0.916667 Li+
0.083333 0.900000 0.500000 Li+
0.083333 0.900000 1.000000 Li+
0.166667 0.900000 0.041666 Li+
0.166667 0.900000 0.541666 Li+
0.250000 0.900000 0.083333 Li+
0.250000 0.900000 0.583333 Li+
0.500000 0.900000 0.208333 Li+
0.500000 0.900000 0.708333 Li+
0.583333 0.900000 0.250000 Li+
0.583333 0.900000 0.750000 Li+
0.750000 0.900000 0.333334 Li+
0.750000 0.900000 0.833333 Li+
0.833333 0.900000 0.375000 Li+
0.833333 0.900000 0.875000 Li+
0.166667 0.100000 0.458333 Li+
0.166667 0.100000 0.958333 Li+
0.083333 0.200000 0.375000 Li+
0.083333 0.200000 0.875000 Li+
0.250000 0.200000 0.458333 Li+
0.250000 0.200000 0.958334 Li+
1.000000 0.300000 0.291666 Li+
1.000000 0.300000 0.791667 Li+
0.083333 0.300000 0.333334 Li+
0.083333 0.300000 0.833333 Li+
0.250000 0.300000 0.416667 Li+
0.250000 0.300000 0.916666 Li+
0.166667 0.400000 0.333334 Li+
0.166667 0.400000 0.833333 Li+
0.250000 0.400000 0.375000 Li+
0.250000 0.400000 0.875000 Li+
0.333333 0.400000 0.416666 Li+
0.333333 0.400000 0.916667 Li+
1.000000 0.500000 0.208333 Li+
0.000000 0.500000 0.708333 Li+
0.250000 0.500000 0.333333 Li+
0.250000 0.500000 0.833333 Li+
0.333333 0.500000 0.375000 Li+
0.333333 0.500000 0.875000 Li+
0.416667 0.500000 0.416666 Li+
0.416667 0.500000 0.916667 Li+
0.500000 0.500000 0.458333 Li+
0.500000 0.500000 0.958334 Li+
1.000000 0.600000 0.166666 Li+
0.000000 0.600000 0.666666 Li+
0.083333 0.600000 0.208333 Li+
0.083333 0.600000 0.708333 Li+
0.166667 0.600000 0.250000 Li+
0.166667 0.600000 0.750000 Li+
0.250000 0.600000 0.291666 Li+
0.250000 0.600000 0.791666 Li+
0.333333 0.600000 0.333334 Li+
0.333333 0.600000 0.833333 Li+
0.500000 0.600000 0.416666 Li+
0.500000 0.600000 0.916666 Li+
0.583333 0.600000 0.458333 Li+
0.583333 0.600000 0.958333 Li+
0.083333 0.700000 0.166666 Li+
0.083333 0.700000 0.666666 Li+
0.166667 0.700000 0.208333 Li+
0.166667 0.700000 0.708333 Li+
0.250000 0.700000 0.250000 Li+
0.250000 0.700000 0.750000 Li+
0.333333 0.700000 0.291666 Li+
0.333333 0.700000 0.791667 Li+
0.500000 0.700000 0.375000 Li+
0.500000 0.700000 0.875000 Li+
0.666667 0.700000 0.458333 Li+
0.666667 0.700000 0.958333 Li+
0.166667 0.800000 0.166666 Li+
0.166667 0.800000 0.666667 Li+
0.250000 0.800000 0.208333 Li+
0.250000 0.800000 0.708333 Li+
0.416667 0.800000 0.291666 Li+
0.416667 0.800000 0.791666 Li+
0.500000 0.800000 0.333333 Li+
0.500000 0.800000 0.833334 Li+
0.583333 0.800000 0.375000 Li+
0.583333 0.800000 0.875000 Li+
0.750000 0.800000 0.458333 Li+
0.750000 0.800000 0.958333 Li+
0.083333 0.900000 0.083333 Li+
0.083333 0.900000 0.583333 Li+
0.166667 0.900000 0.125000 Li+
0.166667 0.900000 0.625000 Li+
0.333333 0.900000 0.208333 Li+
0.333333 0.900000 0.708333 Li+
0.500000 0.900000 0.291666 Li+
0.500000 0.900000 0.791666 Li+
0.666667 0.900000 0.375000 Li+
0.666667 0.900000 0.875000 Li+
0.833333 0.900000 0.458333 Li+
0.833333 0.900000 0.958333 Li+
0.000000 0.100000 0.458333 Li+
0.000000 0.100000 0.958333 Li+
0.000000 0.200000 0.416666 Li+
1.000000 0.200000 0.916666 Li+
0.083333 0.200000 0.458333 Li+
0.083333 0.200000 0.958333 Li+
0.000000 0.300000 0.375000 Li+
0.000000 0.300000 0.875000 Li+
0.166667 0.300000 0.458333 Li+
0.166667 0.300000 0.958333 Li+
1.000000 0.400000 0.333333 Li+
1.000000 0.400000 0.833333 Li+
1.000000 0.500000 0.291666 Li+
1.000000 0.500000 0.791666 Li+
0.083333 0.500000 0.333334 Li+
0.083333 0.500000 0.833333 Li+
0.166667 0.500000 0.375000 Li+
0.166667 0.500000 0.875000 Li+
1.000000 0.600000 0.250000 Li+
0.000000 0.600000 0.750000 Li+
0.083333 0.600000 0.291666 Li+
0.083333 0.600000 0.791666 Li+
0.250000 0.600000 0.375000 Li+
0.250000 0.600000 0.875000 Li+
0.166667 0.700000 0.291666 Li+
0.166667 0.700000 0.791667 Li+
0.333333 0.700000 0.375000 Li+
0.333333 0.700000 0.875000 Li+
0.416667 0.700000 0.416666 Li+
0.416667 0.700000 0.916667 Li+
1.000000 0.800000 0.166666 Li+
0.000000 0.800000 0.666666 Li+
0.083333 0.800000 0.208334 Li+
0.083333 0.800000 0.708333 Li+
0.333333 0.800000 0.333333 Li+
0.333333 0.800000 0.833333 Li+
0.500000 0.800000 0.416666 Li+
0.500000 0.800000 0.916666 Li+
0.583333 0.800000 0.458333 Li+
0.583333 0.800000 0.958333 Li+
1.000000 0.900000 0.125000 Li+
0.000000 0.900000 0.625000 Li+
0.250000 0.900000 0.250000 Li+
0.250000 0.900000 0.750000 Li+
0.416667 0.900000 0.333333 Li+
0.416667 0.900000 0.833333 Li+
0.583333 0.900000 0.416666 Li+
0.583333 0.900000 0.916666 Li+
1.000000 0.400000 0.416666 Li+
1.000000 0.400000 0.916666 Li+
0.083333 0.500000 0.416666 Li+
0.083333 0.500000 0.916666 Li+
0.166667 0.500000 0.458333 Li+
0.166667 0.500000 0.958333 Li+
1.000000 0.600000 0.333333 Li+
1.000000 0.600000 0.833333 Li+
0.166667 0.600000 0.416666 Li+
0.166667 0.600000 0.916667 Li+
0.250000 0.600000 0.458333 Li+
0.250000 0.600000 0.958333 Li+
0.166667 0.700000 0.375000 Li+
0.166667 0.700000 0.875000 Li+
0.333333 0.700000 0.458333 Li+
0.333333 0.700000 0.958333 Li+
0.083333 0.800000 0.291666 Li+
0.083333 0.800000 0.791666 Li+
0.166667 0.800000 0.333333 Li+
0.166667 0.800000 0.833333 Li+
0.250000 0.800000 0.375000 Li+
0.250000 0.800000 0.875000 Li+
0.333333 0.800000 0.416666 Li+
0.333333 0.800000 0.916666 Li+
0.416667 0.800000 0.458333 Li+
0.416667 0.800000 0.958333 Li+
1.000000 0.900000 0.208333 Li+
0.000000 0.900000 0.708333 Li+
0.083333 0.900000 0.250000 Li+
0.083333 0.900000 0.750000 Li+
0.166667 0.900000 0.291666 Li+
0.166667 0.900000 0.791666 Li+
0.416667 0.900000 0.416666 Li+
0.416667 0.900000 0.916666 Li+
0.083333 0.600000 0.458333 Li+
0.083333 0.600000 0.958333 Li+
1.000000 0.700000 0.375000 Li+
0.000000 0.700000 0.875000 Li+
0.083333 0.700000 0.416666 Li+
0.083333 0.700000 0.916667 Li+
1.000000 0.800000 0.333333 Li+
1.000000 0.800000 0.833333 Li+
0.250000 0.800000 0.458333 Li+
0.250000 0.800000 0.958333 Li+
0.083333 0.900000 0.333333 Li+
0.083333 0.900000 0.833333 Li+
0.250000 0.900000 0.416666 Li+
0.250000 0.900000 0.916666 Li+
0.333333 0.900000 0.458333 Li+
0.333333 0.900000 0.958333 Li+
1.000000 0.700000 0.458333 Li+
0.000000 0.700000 0.958333 Li+
1.000000 0.800000 0.416666 Li+
1.000000 0.800000 0.916666 Li+
0.083333 0.800000 0.458333 Li+
0.083333 0.800000 0.958333 Li+
0.083333 0.900000 0.416666 Li+
0.083333 0.900000 0.916667 Li+
0.166667 0.900000 0.458333 Li+
0.166667 0.900000 0.958333 Li+
0.000000 0.900000 0.458333 Li+
0.000000 0.900000 0.958333 Li+
0.833333 1.000000 0.083334 Ti4+
0.833333 1.000000 0.583333 Ti4+
0.583333 0.000000 0.041666 Ti4+
0.583333 1.000000 0.541667 Ti4+
0.750000 1.000000 0.125000 Ti4+
0.750000 1.000000 0.625000 Ti4+
0.666667 0.100000 0.041666 Ti4+
0.666667 0.100000 0.541666 Ti4+
0.833333 0.100000 0.125000 Ti4+
0.833333 0.100000 0.625000 Ti4+
0.916667 0.300000 0.083333 Ti4+
0.916667 0.300000 0.583333 Ti4+
0.500000 1.000000 0.083334 Ti4+
0.500000 0.000000 0.583333 Ti4+
0.833333 0.000000 0.250000 Ti4+
0.833333 1.000000 0.750000 Ti4+
0.416667 0.100000 0.500000 Ti4+
0.416667 0.100000 0.000000 Ti4+
0.666667 0.200000 0.083334 Ti4+
0.666667 0.200000 0.583333 Ti4+
0.916667 0.200000 0.208333 Ti4+
0.916667 0.200000 0.708333 Ti4+
0.833333 0.300000 0.125000 Ti4+
0.833333 0.300000 0.625000 Ti4+
0.750000 0.400000 0.041666 Ti4+
0.750000 0.400000 0.541666 Ti4+
0.916667 0.500000 0.083333 Ti4+
0.916667 0.500000 0.583333 Ti4+
0.250000 0.000000 0.041667 Ti4+
0.250000 0.000000 0.541667 Ti4+
0.500000 0.100000 0.125000 Ti4+
0.500000 0.100000 0.625000 Ti4+
0.583333 0.100000 0.166666 Ti4+
0.583333 0.100000 0.666667 Ti4+
0.833333 0.100000 0.291666 Ti4+
0.833333 0.100000 0.791667 Ti4+
0.916667 0.100000 0.333333 Ti4+
0.916667 0.100000 0.833333 Ti4+
0.333333 0.200000 0.500000 Ti4+
0.333333 0.200000 0.000000 Ti4+
0.416667 0.200000 0.041666 Ti4+
0.416667 0.200000 0.541667 Ti4+
0.500000 0.300000 0.041666 Ti4+
0.500000 0.300000 0.541667 Ti4+
0.583333 0.300000 0.083334 Ti4+
0.583333 0.300000 0.583333 Ti4+
0.750000 0.300000 0.166667 Ti4+
0.750000 0.300000 0.666666 Ti4+
0.916667 0.300000 0.250000 Ti4+
0.916667 0.300000 0.750000 Ti4+
0.833333 0.400000 0.166666 Ti4+
0.833333 0.400000 0.666667 Ti4+
0.583333 0.500000 1.000000 Ti4+
0.583333 0.500000 0.500000 Ti4+
0.666667 0.600000 0.500000 Ti4+
0.666667 0.600000 0.000000 Ti4+
0.833333 0.700000 0.041666 Ti4+
0.833333 0.700000 0.541667 Ti4+
0.500000 1.000000 0.250000 Ti4+
0.500000 1.000000 0.750000 Ti4+
0.666667 1.000000 0.333334 Ti4+
0.666667 1.000000 0.833333 Ti4+
0.250000 0.100000 0.083334 Ti4+
0.250000 0.100000 0.583333 Ti4+
0.166667 0.200000 1.000000 Ti4+
0.166667 0.200000 0.500000 Ti4+
0.833333 0.400000 0.250000 Ti4+
0.833333 0.400000 0.750000 Ti4+
0.750000 0.600000 0.125000 Ti4+
0.750000 0.600000 0.625000 Ti4+
0.916667 0.600000 0.208333 Ti4+
0.916667 0.600000 0.708333 Ti4+
0.750000 0.800000 0.041666 Ti4+
0.750000 0.800000 0.541666 Ti4+
0.750000 0.900000 1.000000 Ti4+
0.750000 0.900000 0.500000 Ti4+
0.916667 0.900000 0.083333 Ti4+
0.916667 0.900000 0.583333 Ti4+
0.250000 1.000000 0.208334 Ti4+
0.250000 0.000000 0.708333 Ti4+
0.166667 0.100000 0.125000 Ti4+
0.166667 0.100000 0.625000 Ti4+
0.583333 0.100000 0.333334 Ti4+
0.583333 0.100000 0.833333 Ti4+
0.833333 0.100000 0.458334 Ti4+
0.833333 0.100000 0.958333 Ti4+
0.083333 0.200000 0.041666 Ti4+
0.083333 0.200000 0.541667 Ti4+
0.333333 0.200000 0.166666 Ti4+
0.333333 0.200000 0.666667 Ti4+
0.916667 0.200000 0.458334 Ti4+
0.916667 0.200000 0.958334 Ti4+
0.166667 0.300000 0.041666 Ti4+
0.166667 0.300000 0.541667 Ti4+
0.250000 0.300000 0.083333 Ti4+