Li576 Ti192 Mn192 O960
1.0
34.292856 -48.497422 0.000000
20.575714 0.000000 -11.879394
15.431785 0.000000 8.909545
Li Ti Mn O
576 192 192 960
direct
0.000000 0.000000 0.000000 Li+
0.500000 0.000000 0.000000 Li+
0.100000 1.000000 0.000000 Li+
0.600000 1.000000 0.000000 Li+
0.150000 0.000000 0.000000 Li+
0.650000 0.000000 0.000000 Li+
0.250000 0.000000 0.000000 Li+
0.750000 0.000000 0.000000 Li+
0.300000 0.000000 0.000000 Li+
0.800000 0.000000 0.000000 Li+
0.350000 0.000000 0.000000 Li+
0.850000 0.000000 0.000000 Li+
0.400000 1.000000 0.000000 Li+
0.900000 1.000000 1.000000 Li+
0.450000 0.000000 0.000000 Li+
0.950000 0.000000 0.000000 Li+
0.050000 0.125000 0.000000 Li+
0.550000 0.125000 0.000000 Li+
0.150000 0.125000 0.000000 Li+
0.650000 0.125000 0.000000 Li+
0.200000 0.125000 0.000000 Li+
0.700000 0.125000 0.000000 Li+
0.250000 0.125000 0.000000 Li+
0.750000 0.125000 0.000000 Li+
0.300000 0.125000 0.000000 Li+
0.800000 0.125000 0.000000 Li+
0.400000 0.125000 0.000000 Li+
0.900000 0.125000 1.000000 Li+
0.100000 0.250000 0.000000 Li+
0.600000 0.250000 0.000000 Li+
0.200000 0.250000 0.000000 Li+
0.700000 0.250000 0.000000 Li+
0.250000 0.250000 0.000000 Li+
0.750000 0.250000 0.000000 Li+
0.300000 0.250000 0.000000 Li+
0.800000 0.250000 0.000000 Li+
0.350000 0.250000 0.000000 Li+
0.850000 0.250000 0.000000 Li+
0.400000 0.250000 0.000000 Li+
0.900000 0.250000 1.000000 Li+
0.450000 0.250000 0.000000 Li+
0.950000 0.250000 0.000000 Li+
0.000000 0.375000 0.000000 Li+
0.500000 0.375000 0.000000 Li+
0.200000 0.375000 0.000000 Li+
0.700000 0.375000 1.000000 Li+
0.300000 0.375000 0.000000 Li+
0.800000 0.375000 0.000000 Li+
0.450000 0.375000 0.000000 Li+
0.950000 0.375000 0.000000 Li+
0.050000 0.500000 0.000000 Li+
0.550000 0.500000 0.000000 Li+
0.100000 0.500000 0.000000 Li+
0.600000 0.500000 0.000000 Li+
0.150000 0.500000 0.000000 Li+
0.650000 0.500000 0.000000 Li+
0.250000 0.500000 0.000000 Li+
0.750000 0.500000 0.000000 Li+
0.300000 0.500000 0.000000 Li+
0.800000 0.500000 0.000000 Li+
0.350000 0.500000 0.000000 Li+
0.850000 0.500000 0.000000 Li+
0.400000 0.500000 0.000000 Li+
0.900000 0.500000 0.000000 Li+
0.050000 0.625000 0.000000 Li+
0.550000 0.625000 0.000000 Li+
0.300000 0.625000 0.000000 Li+
0.800000 0.625000 0.000000 Li+
0.450000 0.625000 0.000000 Li+
0.950000 0.625000 0.000000 Li+
0.050000 0.750000 0.000000 Li+
0.550000 0.750000 0.000000 Li+
0.150000 0.750000 0.000000 Li+
0.650000 0.750000 1.000000 Li+
0.250000 0.750000 0.000000 Li+
0.750000 0.750000 1.000000 Li+
0.300000 0.750000 0.000000 Li+
0.800000 0.750000 0.000000 Li+
0.350000 0.750000 0.000000 Li+
0.850000 0.750000 1.000000 Li+
0.450000 0.750000 0.000000 Li+
0.950000 0.750000 0.000000 Li+
0.100000 0.875000 0.000000 Li+
0.600000 0.875000 0.000000 Li+
0.300000 0.875000 0.000000 Li+
0.800000 0.875000 0.000000 Li+
0.350000 0.875000 0.000000 Li+
0.850000 0.875000 0.000000 Li+
0.400000 0.875000 0.000000 Li+
0.900000 0.875000 1.000000 Li+
1.000000 1.000000 0.166667 Li+
0.500000 0.000000 0.166667 Li+
0.050000 1.000000 0.166667 Li+
0.550000 0.000000 0.166667 Li+
0.150000 1.000000 0.166667 Li+
0.650000 0.000000 0.166667 Li+
0.200000 1.000000 0.166667 Li+
0.700000 0.000000 0.166667 Li+
0.300000 1.000000 0.166667 Li+
0.800000 0.000000 0.166667 Li+
0.400000 1.000000 0.166667 Li+
0.900000 1.000000 0.166667 Li+
0.450000 0.000000 0.166667 Li+
0.950000 0.000000 0.166667 Li+
1.000000 0.125000 0.166667 Li+
0.500000 0.125000 0.166667 Li+
0.050000 0.125000 0.166667 Li+
0.550000 0.125000 0.166667 Li+
0.100000 0.125000 0.166667 Li+
0.600000 0.125000 0.166667 Li+
0.300000 0.125000 0.166667 Li+
0.800000 0.125000 0.166667 Li+
0.450000 0.125000 0.166667 Li+
0.950000 0.125000 0.166667 Li+
0.100000 0.250000 0.166667 Li+
0.600000 0.250000 0.166667 Li+
0.150000 0.250000 0.166667 Li+
0.650000 0.250000 0.166667 Li+
0.200000 0.250000 0.166667 Li+
0.700000 0.250000 0.166667 Li+
0.300000 0.250000 0.166667 Li+
0.800000 0.250000 0.166667 Li+
0.400000 0.250000 0.166667 Li+
0.900000 0.250000 0.166667 Li+
0.000000 0.375000 0.166667 Li+
0.500000 0.375000 0.166667 Li+
0.100000 0.375000 0.166667 Li+
0.600000 0.375000 0.166667 Li+
0.300000 0.375000 0.166667 Li+
0.800000 0.375000 0.166667 Li+
0.350000 0.375000 0.166667 Li+
0.850000 0.375000 0.166667 Li+
0.450000 0.375000 0.166667 Li+
0.950000 0.375000 0.166667 Li+
0.000000 0.500000 0.166667 Li+
0.500000 0.500000 0.166667 Li+
0.100000 0.500000 0.166667 Li+
0.600000 0.500000 0.166667 Li+
0.150000 0.500000 0.166667 Li+
0.650000 0.500000 0.166667 Li+
0.200000 0.500000 0.166667 Li+
0.700000 0.500000 0.166667 Li+
0.300000 0.500000 0.166667 Li+
0.800000 0.500000 0.166667 Li+
0.350000 0.500000 0.166667 Li+
0.850000 0.500000 0.166667 Li+
0.400000 0.500000 0.166667 Li+
0.900000 0.500000 0.166667 Li+
0.450000 0.500000 0.166667 Li+
0.950000 0.500000 0.166667 Li+
0.000000 0.625000 0.166667 Li+
0.500000 0.625000 0.166667 Li+
0.050000 0.625000 0.166667 Li+
0.550000 0.625000 0.166667 Li+
0.100000 0.625000 0.166667 Li+
0.600000 0.625000 0.166667 Li+
0.150000 0.625000 0.166667 Li+
0.650000 0.625000 0.166667 Li+
0.200000 0.625000 0.166667 Li+
0.700000 0.625000 0.166667 Li+
0.350000 0.625000 0.166667 Li+
0.850000 0.625000 0.166667 Li+
0.450000 0.625000 0.166667 Li+
0.950000 0.625000 0.166667 Li+
0.000000 0.750000 0.166667 Li+
0.500000 0.750000 0.166667 Li+
0.050000 0.750000 0.166667 Li+
0.550000 0.750000 0.166667 Li+
0.100000 0.750000 0.166667 Li+
0.600000 0.750000 0.166667 Li+
0.150000 0.750000 0.166667 Li+
0.650000 0.750000 0.166667 Li+
0.200000 0.750000 0.166667 Li+
0.700000 0.750000 0.166667 Li+
0.250000 0.750000 0.166667 Li+
0.750000 0.750000 0.166667 Li+
0.300000 0.750000 0.166667 Li+
0.800000 0.750000 0.166667 Li+
0.350000 0.750000 0.166667 Li+
0.850000 0.750000 0.166667 Li+
0.450000 0.750000 0.166667 Li+
0.950000 0.750000 0.166667 Li+
0.050000 0.875000 0.166667 Li+
0.550000 0.875000 0.166667 Li+
0.150000 0.875000 0.166667 Li+
0.650000 0.875000 0.166667 Li+
0.200000 0.875000 0.166667 Li+
0.700000 0.875000 0.166667 Li+
0.400000 0.875000 0.166667 Li+
0.900000 0.875000 0.166667 Li+
0.450000 0.875000 0.166667 Li+
0.950000 0.875000 0.166667 Li+
0.050000 1.000000 0.333333 Li+
0.550000 1.000000 0.333333 Li+
0.200000 1.000000 0.333333 Li+
0.700000 1.000000 0.333333 Li+
0.250000 0.000000 0.333333 Li+
0.750000 1.000000 0.333333 Li+
0.300000 0.000000 0.333333 Li+
0.800000 1.000000 0.333333 Li+
0.350000 0.000000 0.333333 Li+
0.850000 1.000000 0.333333 Li+
0.400000 1.000000 0.333333 Li+
0.900000 1.000000 0.333333 Li+
0.050000 0.125000 0.333333 Li+
0.550000 0.125000 0.333333 Li+
0.100000 0.125000 0.333333 Li+
0.600000 0.125000 0.333333 Li+
0.200000 0.125000 0.333333 Li+
0.700000 0.125000 0.333333 Li+
0.300000 0.125000 0.333333 Li+
0.800000 0.125000 0.333333 Li+
0.400000 0.125000 0.333333 Li+
0.900000 0.125000 0.333333 Li+
0.000000 0.250000 0.333333 Li+
0.500000 0.250000 0.333333 Li+
0.150000 0.250000 0.333333 Li+
0.650000 0.250000 0.333333 Li+
0.250000 0.250000 0.333333 Li+
0.750000 0.250000 0.333333 Li+
0.300000 0.250000 0.333333 Li+
0.800000 0.250000 0.333333 Li+
0.350000 0.250000 0.333333 Li+
0.850000 0.250000 0.333333 Li+
0.450000 0.250000 0.333333 Li+
0.950000 0.250000 0.333333 Li+
0.000000 0.375000 0.333333 Li+
0.500000 0.375000 0.333333 Li+
0.050000 0.375000 0.333333 Li+
0.550000 0.375000 0.333333 Li+
0.150000 0.375000 0.333333 Li+
0.650000 0.375000 0.333333 Li+
0.200000 0.375000 0.333333 Li+
0.700000 0.375000 0.333333 Li+
0.300000 0.375000 0.333333 Li+
0.800000 0.375000 0.333333 Li+
0.400000 0.375000 0.333333 Li+
0.900000 0.375000 0.333333 Li+
0.050000 0.500000 0.333333 Li+
0.550000 0.500000 0.333333 Li+
0.200000 0.500000 0.333333 Li+
0.700000 0.500000 0.333333 Li+
0.250000 0.500000 0.333333 Li+
0.750000 0.500000 0.333333 Li+
0.350000 0.500000 0.333333 Li+
0.850000 0.500000 0.333333 Li+
0.450000 0.500000 0.333333 Li+
0.950000 0.500000 0.333333 Li+
0.000000 0.625000 0.333333 Li+
0.500000 0.625000 0.333333 Li+
0.250000 0.625000 0.333333 Li+
0.750000 0.625000 0.333333 Li+
0.400000 0.625000 0.333333 Li+
0.900000 0.625000 0.333333 Li+
0.050000 0.750000 0.333333 Li+
0.550000 0.750000 0.333333 Li+
0.100000 0.750000 0.333333 Li+
0.600000 0.750000 0.333333 Li+
0.250000 0.750000 0.333333 Li+
0.750000 0.750000 0.333333 Li+
0.300000 0.750000 0.333333 Li+
0.800000 0.750000 0.333333 Li+
0.350000 0.750000 0.333333 Li+
0.850000 0.750000 0.333333 Li+
0.400000 0.750000 0.333333 Li+
0.900000 0.750000 0.333333 Li+
0.450000 0.750000 0.333333 Li+
0.950000 0.750000 0.333333 Li+
0.100000 0.875000 0.333333 Li+
0.600000 0.875000 0.333333 Li+
0.150000 0.875000 0.333333 Li+
0.650000 0.875000 0.333333 Li+
0.250000 0.875000 0.333333 Li+
0.750000 0.875000 0.333333 Li+
0.300000 0.875000 0.333333 Li+
0.800000 0.875000 0.333333 Li+
0.350000 0.875000 0.333333 Li+
0.850000 0.875000 0.333333 Li+
1.000000 1.000000 0.500000 Li+
0.500000 1.000000 0.500000 Li+
0.100000 1.000000 0.500000 Li+
0.600000 1.000000 0.500000 Li+
0.150000 1.000000 0.500000 Li+
0.650000 0.000000 0.500000 Li+
0.250000 0.000000 0.500000 Li+
0.750000 1.000000 0.500000 Li+
0.300000 1.000000 0.500000 Li+
0.800000 1.000000 0.500000 Li+
0.400000 1.000000 0.500000 Li+
0.900000 1.000000 0.500000 Li+
0.450000 0.000000 0.500000 Li+
0.950000 0.000000 0.500000 Li+
0.050000 0.125000 0.500000 Li+
0.550000 0.125000 0.500000 Li+
0.100000 0.125000 0.500000 Li+
0.600000 0.125000 0.500000 Li+
0.150000 0.125000 0.500000 Li+
0.650000 0.125000 0.500000 Li+
0.200000 0.125000 0.500000 Li+
0.700000 0.125000 0.500000 Li+
0.300000 0.125000 0.500000 Li+
0.800000 0.125000 0.500000 Li+
0.350000 0.125000 0.500000 Li+
0.850000 0.125000 0.500000 Li+
0.450000 0.125000 0.500000 Li+
0.950000 0.125000 0.500000 Li+
0.050000 0.250000 0.500000 Li+
0.550000 0.250000 0.500000 Li+
0.200000 0.250000 0.500000 Li+
0.700000 0.250000 0.500000 Li+
0.250000 0.250000 0.500000 Li+
0.750000 0.250000 0.500000 Li+
0.450000 0.250000 0.500000 Li+
0.950000 0.250000 0.500000 Li+
0.050000 0.375000 0.500000 Li+
0.550000 0.375000 0.500000 Li+
0.100000 0.375000 0.500000 Li+
0.600000 0.375000 0.500000 Li+
0.150000 0.375000 0.500000 Li+
0.650000 0.375000 0.500000 Li+
0.300000 0.375000 0.500000 Li+
0.800000 0.375000 0.500000 Li+
0.350000 0.375000 0.500000 Li+
0.850000 0.375000 0.500000 Li+
0.450000 0.375000 0.500000 Li+
0.950000 0.375000 0.500000 Li+
0.000000 0.500000 0.500000 Li+
0.500000 0.500000 0.500000 Li+
0.050000 0.500000 0.500000 Li+
0.550000 0.500000 0.500000 Li+
0.100000 0.500000 0.500000 Li+
0.600000 0.500000 0.500000 Li+
0.150000 0.500000 0.500000 Li+
0.650000 0.500000 0.500000 Li+
0.200000 0.500000 0.500000 Li+
0.700000 0.500000 0.500000 Li+
0.300000 0.500000 0.500000 Li+
0.800000 0.500000 0.500000 Li+
0.350000 0.500000 0.500000 Li+
0.850000 0.500000 0.500000 Li+
0.400000 0.500000 0.500000 Li+
0.900000 0.500000 0.500000 Li+
0.450000 0.500000 0.500000 Li+
0.950000 0.500000 0.500000 Li+
0.050000 0.625000 0.500000 Li+
0.550000 0.625000 0.500000 Li+
0.100000 0.625000 0.500000 Li+
0.600000 0.625000 0.500000 Li+
0.150000 0.625000 0.500000 Li+
0.650000 0.625000 0.500000 Li+
0.200000 0.625000 0.500000 Li+
0.700000 0.625000 0.500000 Li+
0.250000 0.625000 0.500000 Li+
0.750000 0.625000 0.500000 Li+
0.300000 0.625000 0.500000 Li+
0.800000 0.625000 0.500000 Li+
0.350000 0.625000 0.500000 Li+
0.850000 0.625000 0.500000 Li+
0.450000 0.625000 0.500000 Li+
0.950000 0.625000 0.500000 Li+
0.000000 0.750000 0.500000 Li+
0.500000 0.750000 0.500000 Li+
0.050000 0.750000 0.500000 Li+
0.550000 0.750000 0.500000 Li+
0.150000 0.750000 0.500000 Li+
0.650000 0.750000 0.500000 Li+
0.200000 0.750000 0.500000 Li+
0.700000 0.750000 0.500000 Li+
0.250000 0.750000 0.500000 Li+
0.750000 0.750000 0.500000 Li+
0.300000 0.750000 0.500000 Li+
0.800000 0.750000 0.500000 Li+
0.400000 0.750000 0.500000 Li+
0.900000 0.750000 0.500000 Li+
0.100000 0.875000 0.500000 Li+
0.600000 0.875000 0.500000 Li+
0.150000 0.875000 0.500000 Li+
0.650000 0.875000 0.500000 Li+
0.350000 0.875000 0.500000 Li+
0.850000 0.875000 0.500000 Li+
0.400000 0.875000 0.500000 Li+
0.900000 0.875000 0.500000 Li+
0.450000 0.875000 0.500000 Li+
0.950000 0.875000 0.500000 Li+
1.000000 1.000000 0.666667 Li+
0.500000 0.000000 0.666667 Li+
0.200000 1.000000 0.666667 Li+
0.700000 0.000000 0.666667 Li+
0.250000 1.000000 0.666667 Li+
0.750000 1.000000 0.666667 Li+
0.300000 0.000000 0.666667 Li+
0.800000 0.000000 0.666667 Li+
0.350000 0.000000 0.666667 Li+
0.850000 1.000000 0.666667 Li+
0.450000 1.000000 0.666667 Li+
0.950000 1.000000 0.666667 Li+
1.000000 0.125000 0.666667 Li+
0.500000 0.125000 0.666667 Li+
0.100000 0.125000 0.666667 Li+
0.600000 0.125000 0.666667 Li+
0.150000 0.125000 0.666667 Li+
0.650000 0.125000 0.666667 Li+
0.300000 0.125000 0.666667 Li+
0.800000 0.125000 0.666667 Li+
0.350000 0.125000 0.666667 Li+
0.850000 0.125000 0.666667 Li+
0.450000 0.125000 0.666667 Li+
0.950000 0.125000 0.666667 Li+
0.050000 0.250000 0.666667 Li+
0.550000 0.250000 0.666667 Li+
0.150000 0.250000 0.666667 Li+
0.650000 0.250000 0.666667 Li+
0.200000 0.250000 0.666667 Li+
0.700000 0.250000 0.666667 Li+
0.300000 0.250000 0.666667 Li+
0.800000 0.250000 0.666667 Li+
0.350000 0.250000 0.666667 Li+
0.850000 0.250000 0.666667 Li+
0.400000 0.250000 0.666667 Li+
0.900000 0.250000 0.666667 Li+
0.450000 0.250000 0.666667 Li+
0.950000 0.250000 0.666667 Li+
0.100000 0.375000 0.666667 Li+
0.600000 0.375000 0.666667 Li+
0.200000 0.375000 0.666667 Li+
0.700000 0.375000 0.666667 Li+
0.250000 0.375000 0.666667 Li+
0.750000 0.375000 0.666667 Li+
0.350000 0.375000 0.666667 Li+
0.850000 0.375000 0.666667 Li+
0.450000 0.375000 0.666667 Li+
0.950000 0.375000 0.666667 Li+
1.000000 0.500000 0.666667 Li+
0.500000 0.500000 0.666667 Li+
0.050000 0.500000 0.666667 Li+
0.550000 0.500000 0.666667 Li+
0.150000 0.500000 0.666667 Li+
0.650000 0.500000 0.666667 Li+
0.300000 0.500000 0.666667 Li+
0.800000 0.500000 0.666667 Li+
0.350000 0.500000 0.666667 Li+
0.850000 0.500000 0.666667 Li+
0.400000 0.500000 0.666667 Li+
0.900000 0.500000 0.666667 Li+
0.100000 0.625000 0.666667 Li+
0.600000 0.625000 0.666667 Li+
0.200000 0.625000 0.666667 Li+
0.700000 0.625000 0.666667 Li+
0.400000 0.625000 0.666667 Li+
0.900000 0.625000 0.666667 Li+
0.450000 0.625000 0.666667 Li+
0.950000 0.625000 0.666667 Li+
0.000000 0.750000 0.666667 Li+
0.500000 0.750000 0.666667 Li+
0.050000 0.750000 0.666667 Li+
0.550000 0.750000 0.666667 Li+
0.100000 0.750000 0.666667 Li+
0.600000 0.750000 0.666667 Li+
0.250000 0.750000 0.666667 Li+
0.750000 0.750000 0.666667 Li+
0.300000 0.750000 0.666667 Li+
0.800000 0.750000 0.666667 Li+
0.350000 0.750000 0.666667 Li+
0.850000 0.750000 0.666667 Li+
0.450000 0.750000 0.666667 Li+
0.950000 0.750000 0.666667 Li+
0.150000 0.875000 0.666667 Li+
0.650000 0.875000 0.666667 Li+
0.200000 0.875000 0.666667 Li+
0.700000 0.875000 0.666667 Li+
0.350000 0.875000 0.666667 Li+
0.850000 0.875000 0.666667 Li+
0.400000 0.875000 0.666667 Li+
0.900000 0.875000 0.666667 Li+
0.450000 0.875000 0.666667 Li+
0.950000 0.875000 0.666667 Li+
1.000000 1.000000 0.833333 Li+
0.500000 1.000000 0.833333 Li+
0.050000 0.000000 0.833333 Li+
0.550000 0.000000 0.833333 Li+
0.100000 1.000000 0.833333 Li+
0.600000 0.000000 0.833333 Li+
0.150000 1.000000 0.833333 Li+
0.650000 0.000000 0.833333 Li+
0.200000 1.000000 0.833333 Li+
0.700000 1.000000 0.833333 Li+
0.250000 0.000000 0.833333 Li+
0.750000 1.000000 0.833333 Li+
0.350000 0.000000 0.833333 Li+
0.850000 1.000000 0.833333 Li+
0.450000 1.000000 0.833333 Li+
0.950000 1.000000 0.833333 Li+
1.000000 0.125000 0.833333 Li+
0.500000 0.125000 0.833333 Li+
0.200000 0.125000 0.833333 Li+
0.700000 0.125000 0.833333 Li+
0.250000 0.125000 0.833333 Li+
0.750000 0.125000 0.833333 Li+
0.350000 0.125000 0.833333 Li+
0.850000 0.125000 0.833333 Li+
1.000000 0.250000 0.833333 Li+
0.500000 0.250000 0.833333 Li+
0.050000 0.250000 0.833333 Li+
0.550000 0.250000 0.833333 Li+
0.100000 0.250000 0.833333 Li+
0.600000 0.250000 0.833333 Li+
0.200000 0.250000 0.833333 Li+
0.700000 0.250000 0.833333 Li+
0.350000 0.250000 0.833333 Li+
0.850000 0.250000 0.833333 Li+
0.450000 0.250000 0.833333 Li+
0.950000 0.250000 0.833333 Li+
0.050000 0.375000 0.833333 Li+
0.550000 0.375000 0.833333 Li+
0.150000 0.375000 0.833333 Li+
0.650000 0.375000 0.833333 Li+
0.200000 0.375000 0.833333 Li+
0.700000 0.375000 0.833333 Li+
0.250000 0.375000 0.833333 Li+
0.750000 0.375000 0.833333 Li+
0.400000 0.375000 0.833333 Li+
0.900000 0.375000 0.833333 Li+
0.450000 0.375000 0.833333 Li+
0.950000 0.375000 0.833333 Li+
0.050000 0.500000 0.833333 Li+
0.550000 0.500000 0.833333 Li+
0.100000 0.500000 0.833333 Li+
0.600000 0.500000 0.833333 Li+
0.200000 0.500000 0.833333 Li+
0.700000 0.500000 0.833333 Li+
0.250000 0.500000 0.833333 Li+
0.750000 0.500000 0.833333 Li+
0.300000 0.500000 0.833333 Li+
0.800000 0.500000 0.833333 Li+
0.350000 0.500000 0.833333 Li+
0.850000 0.500000 0.833333 Li+
0.450000 0.500000 0.833333 Li+
0.950000 0.500000 0.833333 Li+
0.000000 0.625000 0.833333 Li+
0.500000 0.625000 0.833333 Li+
0.100000 0.625000 0.833333 Li+
0.600000 0.625000 0.833333 Li+
0.150000 0.625000 0.833333 Li+
0.650000 0.625000 0.833333 Li+
0.200000 0.625000 0.833333 Li+
0.700000 0.625000 0.833333 Li+
0.250000 0.625000 0.833333 Li+
0.750000 0.625000 0.833333 Li+
0.400000 0.625000 0.833333 Li+
0.900000 0.625000 0.833333 Li+
0.450000 0.625000 0.833333 Li+
0.950000 0.625000 0.833333 Li+
0.000000 0.750000 0.833333 Li+
0.500000 0.750000 0.833333 Li+
0.050000 0.750000 0.833333 Li+
0.550000 0.750000 0.833333 Li+
0.150000 0.750000 0.833333 Li+
0.650000 0.750000 0.833333 Li+
0.200000 0.750000 0.833333 Li+
0.700000 0.750000 0.833333 Li+
0.250000 0.750000 0.833333 Li+
0.750000 0.750000 0.833333 Li+
0.300000 0.750000 0.833333 Li+
0.800000 0.750000 0.833333 Li+
0.350000 0.750000 0.833333 Li+
0.850000 0.750000 0.833333 Li+
0.400000 0.750000 0.833333 Li+
0.900000 0.750000 0.833333 Li+
0.050000 0.875000 0.833333 Li+
0.550000 0.875000 0.833333 Li+
0.100000 0.875000 0.833333 Li+
0.600000 0.875000 0.833333 Li+
0.250000 0.875000 0.833333 Li+
0.750000 0.875000 0.833333 Li+
0.450000 0.875000 0.833333 Li+
0.950000 0.875000 0.833333 Li+
0.050000 1.000000 0.000000 Ti4+
0.550000 0.000000 0.000000 Ti4+
0.200000 1.000000 0.000000 Ti4+
0.700000 0.000000 0.000000 Ti4+
0.450000 0.125000 0.000000 Ti4+
0.950000 0.125000 0.000000 Ti4+
0.000000 0.250000 0.000000 Ti4+
0.500000 0.250000 0.000000 Ti4+
0.350000 0.375000 0.000000 Ti4+
0.850000 0.375000 0.000000 Ti4+
0.400000 0.375000 0.000000 Ti4+
0.900000 0.375000 1.000000 Ti4+
0.200000 0.500000 0.000000 Ti4+
0.700000 0.500000 0.000000 Ti4+
0.000000 0.625000 0.000000 Ti4+
0.500000 0.625000 0.000000 Ti4+
0.100000 0.625000 0.000000 Ti4+
0.600000 0.625000 0.000000 Ti4+
0.250000 0.625000 0.000000 Ti4+
0.750000 0.625000 0.000000 Ti4+
0.350000 0.625000 0.000000 Ti4+
0.850000 0.625000 0.000000 Ti4+
0.100000 0.750000 0.000000 Ti4+
0.600000 0.750000 0.000000 Ti4+
0.150000 0.875000 0.000000 Ti4+
0.650000 0.875000 0.000000 Ti4+
0.200000 0.875000 0.000000 Ti4+
0.700000 0.875000 1.000000 Ti4+
0.250000 0.875000 0.000000 Ti4+
0.750000 0.875000 0.000000 Ti4+
0.450000 0.875000 0.000000 Ti4+
0.950000 0.875000 0.000000 Ti4+
0.100000 1.000000 0.166667 Ti4+
0.600000 1.000000 0.166667 Ti4+
0.350000 0.000000 0.166667 Ti4+
0.850000 1.000000 0.166667 Ti4+
0.200000 0.125000 0.166667 Ti4+
0.700000 0.125000 0.166667 Ti4+
0.400000 0.125000 0.166667 Ti4+
0.900000 0.125000 0.166667 Ti4+
0.250000 0.250000 0.166667 Ti4+
0.750000 0.250000 0.166667 Ti4+
0.350000 0.250000 0.166667 Ti4+
0.850000 0.250000 0.166667 Ti4+
0.150000 0.375000 0.166667 Ti4+
0.650000 0.375000 0.166667 Ti4+
0.050000 0.500000 0.166667 Ti4+
0.550000 0.500000 0.166667 Ti4+
0.250000 0.500000 0.166667 Ti4+
0.750000 0.500000 0.166667 Ti4+
0.300000 0.625000 0.166667 Ti4+
0.800000 0.625000 0.166667 Ti4+
0.400000 0.750000 0.166667 Ti4+
0.900000 0.750000 0.166667 Ti4+
0.250000 0.875000 0.166667 Ti4+
0.750000 0.875000 0.166667 Ti4+
0.300000 0.875000 0.166667 Ti4+
0.800000 0.875000 0.166667 Ti4+
0.350000 0.875000 0.166667 Ti4+
0.850000 0.875000 0.166667 Ti4+
0.100000 0.000000 0.333333 Ti4+
0.600000 1.000000 0.333333 Ti4+
1.000000 0.125000 0.333333 Ti4+
0.500000 0.125000 0.333333 Ti4+
0.150000 0.125000 0.333333 Ti4+
0.650000 0.125000 0.333333 Ti4+
0.250000 0.125000 0.333333 Ti4+
0.750000 0.125000 0.333333 Ti4+
0.350000 0.125000 0.333333 Ti4+
0.850000 0.125000 0.333333 Ti4+
0.450000 0.375000 0.333333 Ti4+
0.950000 0.375000 0.333333 Ti4+
0.100000 0.500000 0.333333 Ti4+
0.600000 0.500000 0.333333 Ti4+
0.300000 0.500000 0.333333 Ti4+
0.800000 0.500000 0.333333 Ti4+
0.400000 0.500000 0.333333 Ti4+
0.900000 0.500000 0.333333 Ti4+
0.050000 0.625000 0.333333 Ti4+
0.550000 0.625000 0.333333 Ti4+
0.100000 0.625000 0.333333 Ti4+
0.600000 0.625000 0.333333 Ti4+
0.200000 0.625000 0.333333 Ti4+
0.700000 0.625000 0.333333 Ti4+
0.350000 0.625000 0.333333 Ti4+
0.850000 0.625000 0.333333 Ti4+
0.450000 0.625000 0.333333 Ti4+
0.950000 0.625000 0.333333 Ti4+
0.150000 0.750000 0.333333 Ti4+
0.650000 0.750000 0.333333 Ti4+
0.200000 0.750000 0.333333 Ti4+
0.700000 0.750000 0.333333 Ti4+
0.450000 0.875000 0.333333 Ti4+
0.950000 0.875000 0.333333 Ti4+
0.350000 1.000000 0.500000 Ti4+
0.850000 0.000000 0.500000 Ti4+
0.250000 0.125000 0.500000 Ti4+
0.750000 0.125000 0.500000 Ti4+
0.400000 0.125000 0.500000 Ti4+
0.900000 0.125000 0.500000 Ti4+
0.150000 0.250000 0.500000 Ti4+
0.650000 0.250000 0.500000 Ti4+
0.000000 0.375000 0.500000 Ti4+
0.500000 0.375000 0.500000 Ti4+
0.200000 0.375000 0.500000 Ti4+
0.700000 0.375000 0.500000 Ti4+
0.400000 0.375000 0.500000 Ti4+
0.900000 0.375000 0.500000 Ti4+
0.000000 0.625000 0.500000 Ti4+
0.500000 0.625000 0.500000 Ti4+
0.400000 0.625000 0.500000 Ti4+
0.900000 0.625000 0.500000 Ti4+
0.350000 0.750000 0.500000 Ti4+
0.850000 0.750000 0.500000 Ti4+
0.250000 0.875000 0.500000 Ti4+
0.750000 0.875000 0.500000 Ti4+
0.300000 0.875000 0.500000 Ti4+
0.800000 0.875000 0.500000 Ti4+
0.150000 1.000000 0.666667 Ti4+
0.650000 1.000000 0.666667 Ti4+
0.400000 1.000000 0.666667 Ti4+
0.900000 1.000000 0.666667 Ti4+
0.050000 0.125000 0.666667 Ti4+
0.550000 0.125000 0.666667 Ti4+
0.200000 0.125000 0.666667 Ti4+
0.700000 0.125000 0.666667 Ti4+
0.250000 0.125000 0.666667 Ti4+
0.750000 0.125000 0.666667 Ti4+
0.400000 0.125000 0.666667 Ti4+
0.900000 0.125000 0.666667 Ti4+
1.000000 0.250000 0.666667 Ti4+
0.500000 0.250000 0.666667 Ti4+
1.000000 0.375000 0.666667 Ti4+
0.500000 0.375000 0.666667 Ti4+
0.050000 0.375000 0.666667 Ti4+
0.550000 0.375000 0.666667 Ti4+
0.400000 0.375000 0.666667 Ti4+
0.900000 0.375000 0.666667 Ti4+
0.100000 0.500000 0.666667 Ti4+
0.600000 0.500000 0.666667 Ti4+
0.250000 0.500000 0.666667 Ti4+
0.750000 0.500000 0.666667 Ti4+
0.050000 0.625000 0.666667 Ti4+
0.550000 0.625000 0.666667 Ti4+
0.250000 0.625000 0.666667 Ti4+
0.750000 0.625000 0.666667 Ti4+
0.300000 0.625000 0.666667 Ti4+
0.800000 0.625000 0.666667 Ti4+
0.350000 0.625000 0.666667 Ti4+
0.850000 0.625000 0.666667 Ti4+
0.150000 0.750000 0.666667 Ti4+
0.650000 0.750000 0.666667 Ti4+
0.200000 0.750000 0.666667 Ti4+
0.700000 0.750000 0.666667 Ti4+
0.400000 0.750000 0.666667 Ti4+
0.900000 0.750000 0.666667 Ti4+
0.300000 1.000000 0.833333 Ti4+
0.800000 1.000000 0.833333 Ti4+
0.300000 0.125000 0.833333 Ti4+
0.800000 0.125000 0.833333 Ti4+
0.400000 0.125000 0.833333 Ti4+
0.900000 0.125000 0.833333 Ti4+
0.450000 0.125000 0.833333 Ti4+
0.950000 0.125000 0.833333 Ti4+
0.150000 0.250000 0.833333 Ti4+
0.650000 0.250000 0.833333 Ti4+
0.250000 0.250000 0.833333 Ti4+
0.750000 0.250000 0.833333 Ti4+
0.300000 0.250000 0.833333 Ti4+
0.800000 0.250000 0.833333 Ti4+
0.300000 0.375000 0.833333 Ti4+
0.800000 0.375000 0.833333 Ti4+
0.350000 0.375000 0.833333 Ti4+
0.850000 0.375000 0.833333 Ti4+
0.150000 0.500000 0.833333 Ti4+
0.650000 0.500000 0.833333 Ti4+
0.050000 0.625000 0.833333 Ti4+
0.550000 0.625000 0.833333 Ti4+
0.300000 0.625000 0.833333 Ti4+
0.800000 0.625000 0.833333 Ti4+
0.350000 0.625000 0.833333 Ti4+
0.850000 0.625000 0.833333 Ti4+
0.100000 0.750000 0.833333 Ti4+
0.600000 0.750000 0.833333 Ti4+
0.450000 0.750000 0.833333 Ti4+
0.950000 0.750000 0.833333 Ti4+
0.000000 0.875000 0.833333 Ti4+
0.500000 0.875000 0.833333 Ti4+
0.300000 0.875000 0.833333 Ti4+
0.800000 0.875000 0.833333 Ti4+
0.350000 0.875000 0.833333 Ti4+
0.850000 0.875000 0.833333 Ti4+
0.000000 0.125000 0.000000 Mn3+
0.500000 0.125000 0.000000 Mn3+
0.100000 0.125000 0.000000 Mn3+
0.600000 0.125000 0.000000 Mn3+
0.350000 0.125000 0.000000 Mn3+
0.850000 0.125000 0.000000 Mn3+
0.050000 0.250000 0.000000 Mn3+
0.550000 0.250000 0.000000 Mn3+
0.150000 0.250000 0.000000 Mn3+
0.650000 0.250000 0.000000 Mn3+
0.050000 0.375000 0.000000 Mn3+
0.550000 0.375000 0.000000 Mn3+
0.100000 0.375000 0.000000 Mn3+
0.600000 0.375000 0.000000 Mn3+
0.150000 0.375000 0.000000 Mn3+
0.650000 0.375000 0.000000 Mn3+
0.250000 0.375000 0.000000 Mn3+
0.750000 0.375000 0.000000 Mn3+
0.000000 0.500000 0.000000 Mn3+
0.500000 0.500000 0.000000 Mn3+
0.450000 0.500000 0.000000 Mn3+
0.950000 0.500000 0.000000 Mn3+
0.150000 0.625000 0.000000 Mn3+
0.650000 0.625000 0.000000 Mn3+
0.200000 0.625000 0.000000 Mn3+
0.700000 0.625000 0.000000 Mn3+
0.400000 0.625000 0.000000 Mn3+
0.900000 0.625000 0.000000 Mn3+
0.000000 0.750000 0.000000 Mn3+
0.500000 0.750000 0.000000 Mn3+
0.200000 0.750000 0.000000 Mn3+
0.700000 0.750000 0.000000 Mn3+
0.400000 0.750000 0.000000 Mn3+
0.900000 0.750000 0.000000 Mn3+
0.000000 0.875000 0.000000 Mn3+
0.500000 0.875000 0.000000 Mn3+
0.050000 0.875000 0.000000 Mn3+
0.550000 0.875000 0.000000 Mn3+
0.250000 0.000000 0.166667 Mn3+
0.750000 0.000000 0.166667 Mn3+
0.150000 0.125000 0.166667 Mn3+
0.650000 0.125000 0.166667 Mn3+
0.250000 0.125000 0.166667 Mn3+
0.750000 0.125000 0.166667 Mn3+
0.350000 0.125000 0.166667 Mn3+
0.850000 0.125000 0.166667 Mn3+
0.000000 0.250000 0.166667 Mn3+
0.500000 0.250000 0.166667 Mn3+
0.050000 0.250000 0.166667 Mn3+
0.550000 0.250000 0.166667 Mn3+
0.450000 0.250000 0.166667 Mn3+
0.950000 0.250000 0.166667 Mn3+
0.050000 0.375000 0.166667 Mn3+
0.550000 0.375000 0.166667 Mn3+
0.200000 0.375000 0.166667 Mn3+
0.700000 0.375000 0.166667 Mn3+
0.250000 0.375000 0.166667 Mn3+
0.750000 0.375000 0.166667 Mn3+
0.400000 0.375000 0.166667 Mn3+
0.900000 0.375000 0.166667 Mn3+
0.250000 0.625000 0.166667 Mn3+
0.750000 0.625000 0.166667 Mn3+
0.400000 0.625000 0.166667 Mn3+
0.900000 0.625000 0.166667 Mn3+
0.000000 0.875000 0.166667 Mn3+
0.500000 0.875000 0.166667 Mn3+
0.100000 0.875000 0.166667 Mn3+
0.600000 0.875000 0.166667 Mn3+
1.000000 1.000000 0.333333 Mn3+
0.500000 0.000000 0.333333 Mn3+
0.150000 0.000000 0.333333 Mn3+
0.650000 0.000000 0.333333 Mn3+
0.450000 0.000000 0.333333 Mn3+
0.950000 0.000000 0.333333 Mn3+
0.450000 0.125000 0.333333 Mn3+
0.950000 0.125000 0.333333 Mn3+
0.050000 0.250000 0.333333 Mn3+
0.550000 0.250000 0.333333 Mn3+
0.100000 0.250000 0.333333 Mn3+
0.600000 0.250000 0.333333 Mn3+
0.200000 0.250000 0.333333 Mn3+
0.700000 0.250000 0.333333 Mn3+
0.400000 0.250000 0.333333 Mn3+
0.900000 0.250000 0.333333 Mn3+
0.100000 0.375000 0.333333 Mn3+
0.600000 0.375000 0.333333 Mn3+
0.250000 0.375000 0.333333 Mn3+
0.750000 0.375000 0.333333 Mn3+
0.350000 0.375000 0.333333 Mn3+
0.850000 0.375000 0.333333 Mn3+
0.000000 0.500000 0.333333 Mn3+
0.500000 0.500000 0.333333 Mn3+
0.150000 0.500000 0.333333 Mn3+
0.650000 0.500000 0.333333 Mn3+
0.150000 0.625000 0.333333 Mn3+
0.650000 0.625000 0.333333 Mn3+
0.300000 0.625000 0.333333 Mn3+
0.800000 0.625000 0.333333 Mn3+
0.000000 0.750000 0.333333 Mn3+
0.500000 0.750000 0.333333 Mn3+
0.000000 0.875000 0.333333 Mn3+
0.500000 0.875000 0.333333 Mn3+
0.050000 0.875000 0.333333 Mn3+
0.550000 0.875000 0.333333 Mn3+
0.200000 0.875000 0.333333 Mn3+
0.700000 0.875000 0.333333 Mn3+
0.400000 0.875000 0.333333 Mn3+
0.900000 0.875000 0.333333 Mn3+
0.050000 1.000000 0.500000 Mn3+
0.550000 1.000000 0.500000 Mn3+
0.200000 1.000000 0.500000 Mn3+
0.700000 1.000000 0.500000 Mn3+
1.000000 0.125000 0.500000 Mn3+
0.500000 0.125000 0.500000 Mn3+
1.000000 0.250000 0.500000 Mn3+
0.500000 0.250000 0.500000 Mn3+
0.100000 0.250000 0.500000 Mn3+
0.600000 0.250000 0.500000 Mn3+
0.300000 0.250000 0.500000 Mn3+
0.800000 0.250000 0.500000 Mn3+
0.350000 0.250000 0.500000 Mn3+
0.850000 0.250000 0.500000 Mn3+
0.400000 0.250000 0.500000 Mn3+
0.900000 0.250000 0.500000 Mn3+
0.250000 0.375000 0.500000 Mn3+
0.750000 0.375000 0.500000 Mn3+
0.250000 0.500000 0.500000 Mn3+
0.750000 0.500000 0.500000 Mn3+
0.100000 0.750000 0.500000 Mn3+
0.600000 0.750000 0.500000 Mn3+
0.450000 0.750000 0.500000 Mn3+
0.950000 0.750000 0.500000 Mn3+
0.000000 0.875000 0.500000 Mn3+
0.500000 0.875000 0.500000 Mn3+
0.050000 0.875000 0.500000 Mn3+
0.550000 0.875000 0.500000 Mn3+
0.200000 0.875000 0.500000 Mn3+
0.700000 0.875000 0.500000 Mn3+
0.050000 1.000000 0.666667 Mn3+
0.550000 1.000000 0.666667 Mn3+
0.100000 1.000000 0.666667 Mn3+
0.600000 1.000000 0.666667 Mn3+
0.100000 0.250000 0.666667 Mn3+
0.600000 0.250000 0.666667 Mn3+
0.250000 0.250000 0.666667 Mn3+
0.750000 0.250000 0.666667 Mn3+
0.150000 0.375000 0.666667 Mn3+
0.650000 0.375000 0.666667 Mn3+
0.300000 0.375000 0.666667 Mn3+
0.800000 0.375000 0.666667 Mn3+
0.200000 0.500000 0.666667 Mn3+
0.700000 0.500000 0.666667 Mn3+
0.450000 0.500000 0.666667 Mn3+
0.950000 0.500000 0.666667 Mn3+
0.000000 0.625000 0.666667 Mn3+
0.500000 0.625000 0.666667 Mn3+
0.150000 0.625000 0.666667 Mn3+
0.650000 0.625000 0.666667 Mn3+
0.000000 0.875000 0.666667 Mn3+
0.500000 0.875000 0.666667 Mn3+
0.050000 0.875000 0.666667 Mn3+
0.550000 0.875000 0.666667 Mn3+
0.100000 0.875000 0.666667 Mn3+
0.600000 0.875000 0.666667 Mn3+
0.250000 0.875000 0.666667 Mn3+
0.750000 0.875000 0.666667 Mn3+
0.300000 0.875000 0.666667 Mn3+
0.800000 0.875000 0.666667 Mn3+
0.400000 1.000000 0.833333 Mn3+
0.900000 1.000000 0.833333 Mn3+
0.050000 0.125000 0.833333 Mn3+
0.550000 0.125000 0.833333 Mn3+
0.100000 0.125000 0.833333 Mn3+
0.600000 0.125000 0.833333 Mn3+
0.150000 0.125000 0.833333 Mn3+
0.650000 0.125000 0.833333 Mn3+
0.400000 0.250000 0.833333 Mn3+
0.900000 0.250000 0.833333 Mn3+
1.000000 0.375000 0.833333 Mn3+
0.500000 0.375000 0.833333 Mn3+
0.100000 0.375000 0.833333 Mn3+
0.600000 0.375000 0.833333 Mn3+