Li576 Ti192 Mn192 O960
1.0
17.146428 -24.248711 0.000000
41.151428 0.000000 -23.758788
15.431785 0.000000 8.909545
Li Ti Mn O
576 192 192 960
direct
0.000000 0.000000 0.000000 Li+
0.000000 0.500000 0.000000 Li+
0.200000 1.000000 1.000000 Li+
0.200000 0.500000 0.000000 Li+
0.300000 1.000000 0.000000 Li+
0.300000 0.500000 0.000000 Li+
0.500000 1.000000 0.000000 Li+
0.500000 0.500000 0.000000 Li+
0.600000 1.000000 0.000000 Li+
0.600000 0.500000 0.000000 Li+
0.700000 0.000000 0.000000 Li+
0.700000 0.500000 0.000000 Li+
0.800000 1.000000 1.000000 Li+
0.800000 0.500000 0.000000 Li+
0.900000 0.000000 0.000000 Li+
0.900000 0.500000 0.000000 Li+
0.100000 0.062500 0.000000 Li+
0.100000 0.562500 0.000000 Li+
0.300000 0.062500 0.000000 Li+
0.300000 0.562500 0.000000 Li+
0.400000 0.062500 0.000000 Li+
0.400000 0.562500 0.000000 Li+
0.500000 0.062500 0.000000 Li+
0.500000 0.562500 1.000000 Li+
0.600000 0.062500 0.000000 Li+
0.600000 0.562500 1.000000 Li+
0.800000 0.062500 0.000000 Li+
0.800000 0.562500 1.000000 Li+
0.200000 0.125000 0.000000 Li+
0.200000 0.625000 0.000000 Li+
0.400000 0.125000 0.000000 Li+
0.400000 0.625000 0.000000 Li+
0.500000 0.125000 0.000000 Li+
0.500000 0.625000 1.000000 Li+
0.600000 0.125000 0.000000 Li+
0.600000 0.625000 0.000000 Li+
0.700000 0.125000 0.000000 Li+
0.700000 0.625000 0.000000 Li+
0.800000 0.125000 0.000000 Li+
0.800000 0.625000 0.000000 Li+
0.900000 0.125000 0.000000 Li+
0.900000 0.625000 0.000000 Li+
0.000000 0.187500 1.000000 Li+
0.000000 0.687500 1.000000 Li+
0.400000 0.187500 1.000000 Li+
0.400000 0.687500 1.000000 Li+
0.600000 0.187500 0.000000 Li+
0.600000 0.687500 0.000000 Li+
0.900000 0.187500 0.000000 Li+
0.900000 0.687500 0.000000 Li+
0.100000 0.250000 0.000000 Li+
0.100000 0.750000 0.000000 Li+
0.200000 0.250000 0.000000 Li+
0.200000 0.750000 1.000000 Li+
0.300000 0.250000 0.000000 Li+
0.300000 0.750000 1.000000 Li+
0.500000 0.250000 0.000000 Li+
0.500000 0.750000 1.000000 Li+
0.600000 0.250000 0.000000 Li+
0.600000 0.750000 0.000000 Li+
0.700000 0.250000 0.000000 Li+
0.700000 0.750000 0.000000 Li+
0.800000 0.250000 0.000000 Li+
0.800000 0.750000 0.000000 Li+
0.100000 0.312500 0.000000 Li+
0.100000 0.812500 0.000000 Li+
0.600000 0.312500 0.000000 Li+
0.600000 0.812500 0.000000 Li+
0.900000 0.312500 0.000000 Li+
0.900000 0.812500 0.000000 Li+
0.100000 0.375000 1.000000 Li+
0.100000 0.875000 0.000000 Li+
0.300000 0.375000 1.000000 Li+
0.300000 0.875000 0.000000 Li+
0.500000 0.375000 1.000000 Li+
0.500000 0.875000 0.000000 Li+
0.600000 0.375000 0.000000 Li+
0.600000 0.875000 0.000000 Li+
0.700000 0.375000 1.000000 Li+
0.700000 0.875000 0.000000 Li+
0.900000 0.375000 1.000000 Li+
0.900000 0.875000 0.000000 Li+
0.200000 0.437500 0.000000 Li+
0.200000 0.937500 0.000000 Li+
0.600000 0.437500 0.000000 Li+
0.600000 0.937500 0.000000 Li+
0.700000 0.437500 0.000000 Li+
0.700000 0.937500 0.000000 Li+
0.800000 0.437500 1.000000 Li+
0.800000 0.937500 0.000000 Li+
0.000000 1.000000 0.166667 Li+
0.000000 0.500000 0.166667 Li+
0.100000 1.000000 0.166667 Li+
0.100000 0.500000 0.166667 Li+
0.300000 1.000000 0.166667 Li+
0.300000 0.500000 0.166667 Li+
0.400000 1.000000 0.166667 Li+
0.400000 0.500000 0.166667 Li+
0.600000 1.000000 0.166667 Li+
0.600000 0.500000 0.166667 Li+
0.800000 1.000000 0.166667 Li+
0.800000 0.500000 0.166667 Li+
0.900000 1.000000 0.166667 Li+
0.900000 0.500000 0.166667 Li+
0.000000 0.062500 0.166667 Li+
0.000000 0.562500 0.166667 Li+
0.100000 0.062500 0.166667 Li+
0.100000 0.562500 0.166667 Li+
0.200000 0.062500 0.166667 Li+
0.200000 0.562500 0.166667 Li+
0.600000 0.062500 0.166667 Li+
0.600000 0.562500 0.166667 Li+
0.900000 0.062500 0.166667 Li+
0.900000 0.562500 0.166667 Li+
0.200000 0.125000 0.166667 Li+
0.200000 0.625000 0.166667 Li+
0.300000 0.125000 0.166667 Li+
0.300000 0.625000 0.166667 Li+
0.400000 0.125000 0.166667 Li+
0.400000 0.625000 0.166667 Li+
0.600000 0.125000 0.166667 Li+
0.600000 0.625000 0.166667 Li+
0.800000 0.125000 0.166667 Li+
0.800000 0.625000 0.166667 Li+
0.000000 0.187500 0.166667 Li+
0.000000 0.687500 0.166667 Li+
0.200000 0.187500 0.166667 Li+
0.200000 0.687500 0.166667 Li+
0.600000 0.187500 0.166667 Li+
0.600000 0.687500 0.166667 Li+
0.700000 0.187500 0.166667 Li+
0.700000 0.687500 0.166667 Li+
0.900000 0.187500 0.166667 Li+
0.900000 0.687500 0.166667 Li+
0.000000 0.250000 0.166667 Li+
0.000000 0.750000 0.166667 Li+
0.200000 0.250000 0.166667 Li+
0.200000 0.750000 0.166667 Li+
0.300000 0.250000 0.166667 Li+
0.300000 0.750000 0.166667 Li+
0.400000 0.250000 0.166667 Li+
0.400000 0.750000 0.166667 Li+
0.600000 0.250000 0.166667 Li+
0.600000 0.750000 0.166667 Li+
0.700000 0.250000 0.166667 Li+
0.700000 0.750000 0.166667 Li+
0.800000 0.250000 0.166667 Li+
0.800000 0.750000 0.166667 Li+
0.900000 0.250000 0.166667 Li+
0.900000 0.750000 0.166667 Li+
0.000000 0.312500 0.166667 Li+
0.000000 0.812500 0.166667 Li+
0.100000 0.312500 0.166667 Li+
0.100000 0.812500 0.166667 Li+
0.200000 0.312500 0.166667 Li+
0.200000 0.812500 0.166667 Li+
0.300000 0.312500 0.166667 Li+
0.300000 0.812500 0.166667 Li+
0.400000 0.312500 0.166667 Li+
0.400000 0.812500 0.166667 Li+
0.700000 0.312500 0.166667 Li+
0.700000 0.812500 0.166667 Li+
0.900000 0.312500 0.166667 Li+
0.900000 0.812500 0.166667 Li+
0.000000 0.375000 0.166667 Li+
0.000000 0.875000 0.166667 Li+
0.100000 0.375000 0.166667 Li+
0.100000 0.875000 0.166667 Li+
0.200000 0.375000 0.166667 Li+
0.200000 0.875000 0.166667 Li+
0.300000 0.375000 0.166667 Li+
0.300000 0.875000 0.166667 Li+
0.400000 0.375000 0.166667 Li+
0.400000 0.875000 0.166667 Li+
0.500000 0.375000 0.166667 Li+
0.500000 0.875000 0.166667 Li+
0.600000 0.375000 0.166667 Li+
0.600000 0.875000 0.166667 Li+
0.700000 0.375000 0.166667 Li+
0.700000 0.875000 0.166667 Li+
0.900000 0.375000 0.166667 Li+
0.900000 0.875000 0.166667 Li+
0.100000 0.437500 0.166667 Li+
0.100000 0.937500 0.166667 Li+
0.300000 0.437500 0.166667 Li+
0.300000 0.937500 0.166667 Li+
0.400000 0.437500 0.166667 Li+
0.400000 0.937500 0.166667 Li+
0.800000 0.437500 0.166667 Li+
0.800000 0.937500 0.166667 Li+
0.900000 0.437500 0.166667 Li+
0.900000 0.937500 0.166667 Li+
0.100000 1.000000 0.333333 Li+
0.100000 0.500000 0.333333 Li+
0.400000 1.000000 0.333333 Li+
0.400000 0.500000 0.333333 Li+
0.500000 1.000000 0.333333 Li+
0.500000 0.500000 0.333333 Li+
0.600000 1.000000 0.333333 Li+
0.600000 0.500000 0.333333 Li+
0.700000 1.000000 0.333333 Li+
0.700000 0.500000 0.333333 Li+
0.800000 1.000000 0.333333 Li+
0.800000 0.500000 0.333333 Li+
0.100000 0.062500 0.333333 Li+
0.100000 0.562500 0.333333 Li+
0.200000 0.062500 0.333333 Li+
0.200000 0.562500 0.333333 Li+
0.400000 0.062500 0.333333 Li+
0.400000 0.562500 0.333333 Li+
0.600000 0.062500 0.333333 Li+
0.600000 0.562500 0.333333 Li+
0.800000 0.062500 0.333333 Li+
0.800000 0.562500 0.333333 Li+
0.000000 0.125000 0.333333 Li+
0.000000 0.625000 0.333333 Li+
0.300000 0.125000 0.333333 Li+
0.300000 0.625000 0.333333 Li+
0.500000 0.125000 0.333333 Li+
0.500000 0.625000 0.333333 Li+
0.600000 0.125000 0.333333 Li+
0.600000 0.625000 0.333333 Li+
0.700000 0.125000 0.333333 Li+
0.700000 0.625000 0.333333 Li+
0.900000 0.125000 0.333333 Li+
0.900000 0.625000 0.333333 Li+
0.000000 0.187500 0.333333 Li+
0.000000 0.687500 0.333333 Li+
0.100000 0.187500 0.333333 Li+
0.100000 0.687500 0.333333 Li+
0.300000 0.187500 0.333333 Li+
0.300000 0.687500 0.333333 Li+
0.400000 0.187500 0.333333 Li+
0.400000 0.687500 0.333333 Li+
0.600000 0.187500 0.333333 Li+
0.600000 0.687500 0.333333 Li+
0.800000 0.187500 0.333333 Li+
0.800000 0.687500 0.333333 Li+
0.100000 0.250000 0.333333 Li+
0.100000 0.750000 0.333333 Li+
0.400000 0.250000 0.333333 Li+
0.400000 0.750000 0.333333 Li+
0.500000 0.250000 0.333333 Li+
0.500000 0.750000 0.333333 Li+
0.700000 0.250000 0.333333 Li+
0.700000 0.750000 0.333333 Li+
0.900000 0.250000 0.333333 Li+
0.900000 0.750000 0.333333 Li+
0.000000 0.312500 0.333333 Li+
0.000000 0.812500 0.333333 Li+
0.500000 0.312500 0.333333 Li+
0.500000 0.812500 0.333333 Li+
0.800000 0.312500 0.333333 Li+
0.800000 0.812500 0.333333 Li+
0.100000 0.375000 0.333333 Li+
0.100000 0.875000 0.333333 Li+
0.200000 0.375000 0.333333 Li+
0.200000 0.875000 0.333333 Li+
0.500000 0.375000 0.333333 Li+
0.500000 0.875000 0.333333 Li+
0.600000 0.375000 0.333333 Li+
0.600000 0.875000 0.333333 Li+
0.700000 0.375000 0.333333 Li+
0.700000 0.875000 0.333333 Li+
0.800000 0.375000 0.333333 Li+
0.800000 0.875000 0.333333 Li+
0.900000 0.375000 0.333333 Li+
0.900000 0.875000 0.333333 Li+
0.200000 0.437500 0.333333 Li+
0.200000 0.937500 0.333333 Li+
0.300000 0.437500 0.333333 Li+
0.300000 0.937500 0.333333 Li+
0.500000 0.437500 0.333333 Li+
0.500000 0.937500 0.333333 Li+
0.600000 0.437500 0.333333 Li+
0.600000 0.937500 0.333333 Li+
0.700000 0.437500 0.333333 Li+
0.700000 0.937500 0.333333 Li+
0.000000 1.000000 0.500000 Li+
0.000000 0.500000 0.500000 Li+
0.200000 1.000000 0.500000 Li+
0.200000 0.500000 0.500000 Li+
0.300000 1.000000 0.500000 Li+
0.300000 0.500000 0.500000 Li+
0.500000 0.500000 0.500000 Li+
0.500000 1.000000 0.500000 Li+
0.600000 1.000000 0.500000 Li+
0.600000 0.500000 0.500000 Li+
0.800000 1.000000 0.500000 Li+
0.800000 0.500000 0.500000 Li+
0.900000 0.500000 0.500000 Li+
0.900000 1.000000 0.500000 Li+
0.100000 0.062500 0.500000 Li+
0.100000 0.562500 0.500000 Li+
0.200000 0.062500 0.500000 Li+
0.200000 0.562500 0.500000 Li+
0.300000 0.062500 0.500000 Li+
0.300000 0.562500 0.500000 Li+
0.400000 0.062500 0.500000 Li+
0.400000 0.562500 0.500000 Li+
0.600000 0.062500 0.500000 Li+
0.600000 0.562500 0.500000 Li+
0.700000 0.062500 0.500000 Li+
0.700000 0.562500 0.500000 Li+
0.900000 0.062500 0.500000 Li+
0.900000 0.562500 0.500000 Li+
0.100000 0.125000 0.500000 Li+
0.100000 0.625000 0.500000 Li+
0.400000 0.125000 0.500000 Li+
0.400000 0.625000 0.500000 Li+
0.500000 0.125000 0.500000 Li+
0.500000 0.625000 0.500000 Li+
0.900000 0.125000 0.500000 Li+
0.900000 0.625000 0.500000 Li+
0.100000 0.187500 0.500000 Li+
0.100000 0.687500 0.500000 Li+
0.200000 0.187500 0.500000 Li+
0.200000 0.687500 0.500000 Li+
0.300000 0.187500 0.500000 Li+
0.300000 0.687500 0.500000 Li+
0.600000 0.187500 0.500000 Li+
0.600000 0.687500 0.500000 Li+
0.700000 0.187500 0.500000 Li+
0.700000 0.687500 0.500000 Li+
0.900000 0.187500 0.500000 Li+
0.900000 0.687500 0.500000 Li+
0.000000 0.250000 0.500000 Li+
0.000000 0.750000 0.500000 Li+
0.100000 0.250000 0.500000 Li+
0.100000 0.750000 0.500000 Li+
0.200000 0.250000 0.500000 Li+
0.200000 0.750000 0.500000 Li+
0.300000 0.250000 0.500000 Li+
0.300000 0.750000 0.500000 Li+
0.400000 0.250000 0.500000 Li+
0.400000 0.750000 0.500000 Li+
0.600000 0.250000 0.500000 Li+
0.600000 0.750000 0.500000 Li+
0.700000 0.250000 0.500000 Li+
0.700000 0.750000 0.500000 Li+
0.800000 0.250000 0.500000 Li+
0.800000 0.750000 0.500000 Li+
0.900000 0.250000 0.500000 Li+
0.900000 0.750000 0.500000 Li+
0.100000 0.312500 0.500000 Li+
0.100000 0.812500 0.500000 Li+
0.200000 0.312500 0.500000 Li+
0.200000 0.812500 0.500000 Li+
0.300000 0.312500 0.500000 Li+
0.300000 0.812500 0.500000 Li+
0.400000 0.312500 0.500000 Li+
0.400000 0.812500 0.500000 Li+
0.500000 0.312500 0.500000 Li+
0.500000 0.812500 0.500000 Li+
0.600000 0.312500 0.500000 Li+
0.600000 0.812500 0.500000 Li+
0.700000 0.312500 0.500000 Li+
0.700000 0.812500 0.500000 Li+
0.900000 0.312500 0.500000 Li+
0.900000 0.812500 0.500000 Li+
0.000000 0.375000 0.500000 Li+
0.000000 0.875000 0.500000 Li+
0.100000 0.375000 0.500000 Li+
0.100000 0.875000 0.500000 Li+
0.300000 0.375000 0.500000 Li+
0.300000 0.875000 0.500000 Li+
0.400000 0.375000 0.500000 Li+
0.400000 0.875000 0.500000 Li+
0.500000 0.375000 0.500000 Li+
0.500000 0.875000 0.500000 Li+
0.600000 0.375000 0.500000 Li+
0.600000 0.875000 0.500000 Li+
0.800000 0.375000 0.500000 Li+
0.800000 0.875000 0.500000 Li+
0.200000 0.437500 0.500000 Li+
0.200000 0.937500 0.500000 Li+
0.300000 0.437500 0.500000 Li+
0.300000 0.937500 0.500000 Li+
0.700000 0.437500 0.500000 Li+
0.700000 0.937500 0.500000 Li+
0.800000 0.437500 0.500000 Li+
0.800000 0.937500 0.500000 Li+
0.900000 0.437500 0.500000 Li+
0.900000 0.937500 0.500000 Li+
0.000000 1.000000 0.666667 Li+
0.000000 0.500000 0.666667 Li+
0.400000 1.000000 0.666667 Li+
0.400000 0.500000 0.666667 Li+
0.500000 1.000000 0.666667 Li+
0.500000 0.500000 0.666667 Li+
0.600000 1.000000 0.666667 Li+
0.600000 0.500000 0.666667 Li+
0.700000 1.000000 0.666667 Li+
0.700000 0.500000 0.666667 Li+
0.900000 1.000000 0.666667 Li+
0.900000 0.500000 0.666667 Li+
0.000000 0.062500 0.666667 Li+
0.000000 0.562500 0.666667 Li+
0.200000 0.062500 0.666667 Li+
0.200000 0.562500 0.666667 Li+
0.300000 0.062500 0.666667 Li+
0.300000 0.562500 0.666667 Li+
0.600000 0.062500 0.666667 Li+
0.600000 0.562500 0.666667 Li+
0.700000 0.062500 0.666667 Li+
0.700000 0.562500 0.666667 Li+
0.900000 0.062500 0.666667 Li+
0.900000 0.562500 0.666667 Li+
0.100000 0.125000 0.666667 Li+
0.100000 0.625000 0.666667 Li+
0.300000 0.125000 0.666667 Li+
0.300000 0.625000 0.666667 Li+
0.400000 0.125000 0.666667 Li+
0.400000 0.625000 0.666667 Li+
0.600000 0.125000 0.666667 Li+
0.600000 0.625000 0.666667 Li+
0.700000 0.125000 0.666667 Li+
0.700000 0.625000 0.666667 Li+
0.800000 0.125000 0.666667 Li+
0.800000 0.625000 0.666667 Li+
0.900000 0.125000 0.666667 Li+
0.900000 0.625000 0.666667 Li+
0.200000 0.187500 0.666667 Li+
0.200000 0.687500 0.666667 Li+
0.400000 0.187500 0.666667 Li+
0.400000 0.687500 0.666667 Li+
0.500000 0.187500 0.666667 Li+
0.500000 0.687500 0.666667 Li+
0.700000 0.187500 0.666667 Li+
0.700000 0.687500 0.666667 Li+
0.900000 0.187500 0.666667 Li+
0.900000 0.687500 0.666667 Li+
0.000000 0.250000 0.666667 Li+
0.000000 0.750000 0.666667 Li+
0.100000 0.250000 0.666667 Li+
0.100000 0.750000 0.666667 Li+
0.300000 0.250000 0.666667 Li+
0.300000 0.750000 0.666667 Li+
0.600000 0.250000 0.666667 Li+
0.600000 0.750000 0.666667 Li+
0.700000 0.250000 0.666667 Li+
0.700000 0.750000 0.666667 Li+
0.800000 0.250000 0.666667 Li+
0.800000 0.750000 0.666667 Li+
0.200000 0.312500 0.666667 Li+
0.200000 0.812500 0.666667 Li+
0.400000 0.312500 0.666667 Li+
0.400000 0.812500 0.666667 Li+
0.800000 0.312500 0.666667 Li+
0.800000 0.812500 0.666667 Li+
0.900000 0.312500 0.666667 Li+
0.900000 0.812500 0.666667 Li+
0.000000 0.375000 0.666667 Li+
0.000000 0.875000 0.666667 Li+
0.100000 0.375000 0.666667 Li+
0.100000 0.875000 0.666667 Li+
0.200000 0.375000 0.666667 Li+
0.200000 0.875000 0.666667 Li+
0.500000 0.375000 0.666667 Li+
0.500000 0.875000 0.666667 Li+
0.600000 0.375000 0.666667 Li+
0.600000 0.875000 0.666667 Li+
0.700000 0.375000 0.666667 Li+
0.700000 0.875000 0.666667 Li+
0.900000 0.375000 0.666667 Li+
0.900000 0.875000 0.666667 Li+
0.300000 0.437500 0.666667 Li+
0.300000 0.937500 0.666667 Li+
0.400000 0.437500 0.666667 Li+
0.400000 0.937500 0.666667 Li+
0.700000 0.437500 0.666667 Li+
0.700000 0.937500 0.666667 Li+
0.800000 0.437500 0.666667 Li+
0.800000 0.937500 0.666667 Li+
0.900000 0.437500 0.666667 Li+
0.900000 0.937500 0.666667 Li+
0.000000 1.000000 0.833333 Li+
0.000000 0.500000 0.833333 Li+
0.100000 0.500000 0.833333 Li+
0.100000 1.000000 0.833333 Li+
0.200000 0.500000 0.833333 Li+
0.200000 0.000000 0.833333 Li+
0.300000 1.000000 0.833333 Li+
0.300000 0.500000 0.833333 Li+
0.400000 1.000000 0.833333 Li+
0.400000 0.500000 0.833333 Li+
0.500000 0.500000 0.833333 Li+
0.500000 1.000000 0.833333 Li+
0.700000 0.500000 0.833333 Li+
0.700000 1.000000 0.833333 Li+
0.900000 0.500000 0.833333 Li+
0.900000 1.000000 0.833333 Li+
0.000000 0.062500 0.833333 Li+
0.000000 0.562500 0.833333 Li+
0.400000 0.062500 0.833333 Li+
0.400000 0.562500 0.833333 Li+
0.500000 0.062500 0.833333 Li+
0.500000 0.562500 0.833333 Li+
0.700000 0.062500 0.833333 Li+
0.700000 0.562500 0.833333 Li+
0.000000 0.125000 0.833333 Li+
0.000000 0.625000 0.833333 Li+
0.100000 0.125000 0.833333 Li+
0.100000 0.625000 0.833333 Li+
0.200000 0.125000 0.833333 Li+
0.200000 0.625000 0.833333 Li+
0.400000 0.125000 0.833333 Li+
0.400000 0.625000 0.833333 Li+
0.700000 0.125000 0.833333 Li+
0.700000 0.625000 0.833333 Li+
0.900000 0.125000 0.833333 Li+
0.900000 0.625000 0.833333 Li+
0.100000 0.187500 0.833333 Li+
0.100000 0.687500 0.833333 Li+
0.300000 0.187500 0.833333 Li+
0.300000 0.687500 0.833333 Li+
0.400000 0.187500 0.833333 Li+
0.400000 0.687500 0.833333 Li+
0.500000 0.187500 0.833333 Li+
0.500000 0.687500 0.833333 Li+
0.800000 0.187500 0.833333 Li+
0.800000 0.687500 0.833333 Li+
0.900000 0.187500 0.833333 Li+
0.900000 0.687500 0.833333 Li+
0.100000 0.250000 0.833333 Li+
0.100000 0.750000 0.833333 Li+
0.200000 0.250000 0.833333 Li+
0.200000 0.750000 0.833333 Li+
0.400000 0.250000 0.833333 Li+
0.400000 0.750000 0.833333 Li+
0.500000 0.250000 0.833333 Li+
0.500000 0.750000 0.833333 Li+
0.600000 0.250000 0.833333 Li+
0.600000 0.750000 0.833333 Li+
0.700000 0.250000 0.833333 Li+
0.700000 0.750000 0.833333 Li+
0.900000 0.250000 0.833333 Li+
0.900000 0.750000 0.833333 Li+
0.000000 0.312500 0.833333 Li+
0.000000 0.812500 0.833333 Li+
0.200000 0.312500 0.833333 Li+
0.200000 0.812500 0.833333 Li+
0.300000 0.312500 0.833333 Li+
0.300000 0.812500 0.833333 Li+
0.400000 0.312500 0.833333 Li+
0.400000 0.812500 0.833333 Li+
0.500000 0.312500 0.833333 Li+
0.500000 0.812500 0.833333 Li+
0.800000 0.312500 0.833333 Li+
0.800000 0.812500 0.833333 Li+
0.900000 0.312500 0.833333 Li+
0.900000 0.812500 0.833333 Li+
0.000000 0.375000 0.833333 Li+
0.000000 0.875000 0.833333 Li+
0.100000 0.375000 0.833333 Li+
0.100000 0.875000 0.833333 Li+
0.300000 0.375000 0.833333 Li+
0.300000 0.875000 0.833333 Li+
0.400000 0.375000 0.833333 Li+
0.400000 0.875000 0.833333 Li+
0.500000 0.375000 0.833333 Li+
0.500000 0.875000 0.833333 Li+
0.600000 0.375000 0.833333 Li+
0.600000 0.875000 0.833333 Li+
0.700000 0.375000 0.833333 Li+
0.700000 0.875000 0.833333 Li+
0.800000 0.375000 0.833333 Li+
0.800000 0.875000 0.833333 Li+
0.100000 0.437500 0.833333 Li+
0.100000 0.937500 0.833333 Li+
0.200000 0.437500 0.833333 Li+
0.200000 0.937500 0.833333 Li+
0.500000 0.437500 0.833333 Li+
0.500000 0.937500 0.833333 Li+
0.900000 0.437500 0.833333 Li+
0.900000 0.937500 0.833333 Li+
0.100000 1.000000 1.000000 Ti4+
0.100000 0.500000 0.000000 Ti4+
0.400000 1.000000 1.000000 Ti4+
0.400000 0.500000 0.000000 Ti4+
0.900000 0.062500 0.000000 Ti4+
0.900000 0.562500 0.000000 Ti4+
0.000000 0.125000 0.000000 Ti4+
0.000000 0.625000 0.000000 Ti4+
0.700000 0.187500 0.000000 Ti4+
0.700000 0.687500 0.000000 Ti4+
0.800000 0.187500 1.000000 Ti4+
0.800000 0.687500 1.000000 Ti4+
0.400000 0.250000 0.000000 Ti4+
0.400000 0.750000 0.000000 Ti4+
0.000000 0.312500 0.000000 Ti4+
0.000000 0.812500 0.000000 Ti4+
0.200000 0.312500 0.000000 Ti4+
0.200000 0.812500 1.000000 Ti4+
0.500000 0.312500 0.000000 Ti4+
0.500000 0.812500 0.000000 Ti4+
0.700000 0.312500 0.000000 Ti4+
0.700000 0.812500 0.000000 Ti4+
0.200000 0.375000 1.000000 Ti4+
0.200000 0.875000 0.000000 Ti4+
0.300000 0.437500 0.000000 Ti4+
0.300000 0.937500 0.000000 Ti4+
0.400000 0.437500 0.000000 Ti4+
0.400000 0.937500 0.000000 Ti4+
0.500000 0.437500 0.000000 Ti4+
0.500000 0.937500 0.000000 Ti4+
0.900000 0.437500 0.000000 Ti4+
0.900000 0.937500 0.000000 Ti4+
0.200000 1.000000 0.166667 Ti4+
0.200000 0.500000 0.166667 Ti4+
0.700000 1.000000 0.166667 Ti4+
0.700000 0.500000 0.166667 Ti4+
0.400000 0.062500 0.166667 Ti4+
0.400000 0.562500 0.166667 Ti4+
0.800000 0.062500 0.166667 Ti4+
0.800000 0.562500 0.166667 Ti4+
0.500000 0.125000 0.166667 Ti4+
0.500000 0.625000 0.166667 Ti4+
0.700000 0.125000 0.166667 Ti4+
0.700000 0.625000 0.166667 Ti4+
0.300000 0.187500 0.166667 Ti4+
0.300000 0.687500 0.166667 Ti4+
0.100000 0.250000 0.166667 Ti4+
0.100000 0.750000 0.166667 Ti4+
0.500000 0.250000 0.166667 Ti4+
0.500000 0.750000 0.166667 Ti4+
0.600000 0.312500 0.166667 Ti4+
0.600000 0.812500 0.166667 Ti4+
0.800000 0.375000 0.166667 Ti4+
0.800000 0.875000 0.166667 Ti4+
0.500000 0.437500 0.166667 Ti4+
0.500000 0.937500 0.166667 Ti4+
0.600000 0.437500 0.166667 Ti4+
0.600000 0.937500 0.166667 Ti4+
0.700000 0.437500 0.166667 Ti4+
0.700000 0.937500 0.166667 Ti4+
0.200000 1.000000 0.333333 Ti4+
0.200000 0.500000 0.333333 Ti4+
0.000000 0.062500 0.333333 Ti4+
0.000000 0.562500 0.333333 Ti4+
0.300000 0.062500 0.333333 Ti4+
0.300000 0.562500 0.333333 Ti4+
0.500000 0.062500 0.333333 Ti4+
0.500000 0.562500 0.333333 Ti4+
0.700000 0.062500 0.333333 Ti4+
0.700000 0.562500 0.333333 Ti4+
0.900000 0.187500 0.333333 Ti4+
0.900000 0.687500 0.333333 Ti4+
0.200000 0.250000 0.333333 Ti4+
0.200000 0.750000 0.333333 Ti4+
0.600000 0.250000 0.333333 Ti4+
0.600000 0.750000 0.333333 Ti4+
0.800000 0.250000 0.333333 Ti4+
0.800000 0.750000 0.333333 Ti4+
0.100000 0.312500 0.333333 Ti4+
0.100000 0.812500 0.333333 Ti4+
0.200000 0.312500 0.333333 Ti4+
0.200000 0.812500 0.333333 Ti4+
0.400000 0.312500 0.333333 Ti4+
0.400000 0.812500 0.333333 Ti4+
0.700000 0.312500 0.333333 Ti4+
0.700000 0.812500 0.333333 Ti4+
0.900000 0.312500 0.333333 Ti4+
0.900000 0.812500 0.333333 Ti4+
0.300000 0.375000 0.333333 Ti4+
0.300000 0.875000 0.333333 Ti4+
0.400000 0.375000 0.333333 Ti4+
0.400000 0.875000 0.333333 Ti4+
0.900000 0.437500 0.333333 Ti4+
0.900000 0.937500 0.333333 Ti4+
0.700000 1.000000 0.500000 Ti4+
0.700000 0.500000 0.500000 Ti4+
0.500000 0.062500 0.500000 Ti4+
0.500000 0.562500 0.500000 Ti4+
0.800000 0.062500 0.500000 Ti4+
0.800000 0.562500 0.500000 Ti4+
0.300000 0.125000 0.500000 Ti4+
0.300000 0.625000 0.500000 Ti4+
0.000000 0.187500 0.500000 Ti4+
0.000000 0.687500 0.500000 Ti4+
0.400000 0.187500 0.500000 Ti4+
0.400000 0.687500 0.500000 Ti4+
0.800000 0.187500 0.500000 Ti4+
0.800000 0.687500 0.500000 Ti4+
0.000000 0.312500 0.500000 Ti4+
0.000000 0.812500 0.500000 Ti4+
0.800000 0.312500 0.500000 Ti4+
0.800000 0.812500 0.500000 Ti4+
0.700000 0.375000 0.500000 Ti4+
0.700000 0.875000 0.500000 Ti4+
0.500000 0.437500 0.500000 Ti4+
0.500000 0.937500 0.500000 Ti4+
0.600000 0.437500 0.500000 Ti4+
0.600000 0.937500 0.500000 Ti4+
0.300000 1.000000 0.666667 Ti4+
0.300000 0.500000 0.666667 Ti4+
0.800000 1.000000 0.666667 Ti4+
0.800000 0.500000 0.666667 Ti4+
0.100000 0.062500 0.666667 Ti4+
0.100000 0.562500 0.666667 Ti4+
0.400000 0.062500 0.666667 Ti4+
0.400000 0.562500 0.666667 Ti4+
0.500000 0.062500 0.666667 Ti4+
0.500000 0.562500 0.666667 Ti4+
0.800000 0.062500 0.666667 Ti4+
0.800000 0.562500 0.666667 Ti4+
0.000000 0.125000 0.666667 Ti4+
0.000000 0.625000 0.666667 Ti4+
0.000000 0.187500 0.666667 Ti4+
0.000000 0.687500 0.666667 Ti4+
0.100000 0.187500 0.666667 Ti4+
0.100000 0.687500 0.666667 Ti4+
0.800000 0.187500 0.666667 Ti4+
0.800000 0.687500 0.666667 Ti4+
0.200000 0.250000 0.666667 Ti4+
0.200000 0.750000 0.666667 Ti4+
0.500000 0.250000 0.666667 Ti4+
0.500000 0.750000 0.666667 Ti4+
0.100000 0.312500 0.666667 Ti4+
0.100000 0.812500 0.666667 Ti4+
0.500000 0.312500 0.666667 Ti4+
0.500000 0.812500 0.666667 Ti4+
0.600000 0.312500 0.666667 Ti4+
0.600000 0.812500 0.666667 Ti4+
0.700000 0.312500 0.666667 Ti4+
0.700000 0.812500 0.666667 Ti4+
0.300000 0.375000 0.666667 Ti4+
0.300000 0.875000 0.666667 Ti4+
0.400000 0.375000 0.666667 Ti4+
0.400000 0.875000 0.666667 Ti4+
0.800000 0.375000 0.666667 Ti4+
0.800000 0.875000 0.666667 Ti4+
0.600000 1.000000 0.833333 Ti4+
0.600000 0.500000 0.833333 Ti4+
0.600000 0.062500 0.833333 Ti4+
0.600000 0.562500 0.833333 Ti4+
0.800000 0.062500 0.833333 Ti4+
0.800000 0.562500 0.833333 Ti4+
0.900000 0.062500 0.833333 Ti4+
0.900000 0.562500 0.833333 Ti4+
0.300000 0.125000 0.833333 Ti4+
0.300000 0.625000 0.833333 Ti4+
0.500000 0.125000 0.833333 Ti4+
0.500000 0.625000 0.833333 Ti4+
0.600000 0.125000 0.833333 Ti4+
0.600000 0.625000 0.833333 Ti4+
0.600000 0.187500 0.833333 Ti4+
0.600000 0.687500 0.833333 Ti4+
0.700000 0.187500 0.833333 Ti4+
0.700000 0.687500 0.833333 Ti4+
0.300000 0.250000 0.833333 Ti4+
0.300000 0.750000 0.833333 Ti4+
0.100000 0.312500 0.833333 Ti4+
0.100000 0.812500 0.833333 Ti4+
0.600000 0.312500 0.833333 Ti4+
0.600000 0.812500 0.833333 Ti4+
0.700000 0.312500 0.833333 Ti4+
0.700000 0.812500 0.833333 Ti4+
0.200000 0.375000 0.833333 Ti4+
0.200000 0.875000 0.833333 Ti4+
0.900000 0.375000 0.833333 Ti4+
0.900000 0.875000 0.833333 Ti4+
0.000000 0.437500 0.833333 Ti4+
0.000000 0.937500 0.833333 Ti4+
0.600000 0.437500 0.833333 Ti4+
0.600000 0.937500 0.833333 Ti4+
0.700000 0.437500 0.833333 Ti4+
0.700000 0.937500 0.833333 Ti4+
0.000000 0.062500 0.000000 Mn3+
0.000000 0.562500 0.000000 Mn3+
0.200000 0.062500 0.000000 Mn3+
0.200000 0.562500 1.000000 Mn3+
0.700000 0.062500 0.000000 Mn3+
0.700000 0.562500 0.000000 Mn3+
0.100000 0.125000 0.000000 Mn3+
0.100000 0.625000 0.000000 Mn3+
0.300000 0.125000 0.000000 Mn3+
0.300000 0.625000 0.000000 Mn3+
0.100000 0.187500 1.000000 Mn3+
0.100000 0.687500 1.000000 Mn3+
0.200000 0.187500 1.000000 Mn3+
0.200000 0.687500 1.000000 Mn3+
0.300000 0.187500 0.000000 Mn3+
0.300000 0.687500 1.000000 Mn3+
0.500000 0.187500 0.000000 Mn3+
0.500000 0.687500 0.000000 Mn3+
0.000000 0.250000 0.000000 Mn3+
0.000000 0.750000 1.000000 Mn3+
0.900000 0.250000 0.000000 Mn3+
0.900000 0.750000 0.000000 Mn3+
0.300000 0.312500 0.000000 Mn3+
0.300000 0.812500 1.000000 Mn3+
0.400000 0.312500 0.000000 Mn3+
0.400000 0.812500 1.000000 Mn3+
0.800000 0.312500 0.000000 Mn3+
0.800000 0.812500 0.000000 Mn3+
0.000000 0.375000 1.000000 Mn3+
0.000000 0.875000 0.000000 Mn3+
0.400000 0.375000 1.000000 Mn3+
0.400000 0.875000 0.000000 Mn3+
0.800000 0.375000 1.000000 Mn3+
0.800000 0.875000 0.000000 Mn3+
0.000000 0.437500 0.000000 Mn3+
0.000000 0.937500 0.000000 Mn3+
0.100000 0.437500 0.000000 Mn3+
0.100000 0.937500 0.000000 Mn3+
0.500000 1.000000 0.166667 Mn3+
0.500000 0.500000 0.166667 Mn3+
0.300000 0.062500 0.166667 Mn3+
0.300000 0.562500 0.166667 Mn3+
0.500000 0.062500 0.166667 Mn3+
0.500000 0.562500 0.166667 Mn3+
0.700000 0.062500 0.166667 Mn3+
0.700000 0.562500 0.166667 Mn3+
0.000000 0.125000 0.166667 Mn3+
0.000000 0.625000 0.166667 Mn3+
0.100000 0.125000 0.166667 Mn3+
0.100000 0.625000 0.166667 Mn3+
0.900000 0.125000 0.166667 Mn3+
0.900000 0.625000 0.166667 Mn3+
0.100000 0.187500 0.166667 Mn3+
0.100000 0.687500 0.166667 Mn3+
0.400000 0.187500 0.166667 Mn3+
0.400000 0.687500 0.166667 Mn3+
0.500000 0.187500 0.166667 Mn3+
0.500000 0.687500 0.166667 Mn3+
0.800000 0.187500 0.166667 Mn3+
0.800000 0.687500 0.166667 Mn3+
0.500000 0.312500 0.166667 Mn3+
0.500000 0.812500 0.166667 Mn3+
0.800000 0.312500 0.166667 Mn3+
0.800000 0.812500 0.166667 Mn3+
0.000000 0.437500 0.166667 Mn3+
0.000000 0.937500 0.166667 Mn3+
0.200000 0.437500 0.166667 Mn3+
0.200000 0.937500 0.166667 Mn3+
0.000000 1.000000 0.333333 Mn3+
0.000000 0.500000 0.333333 Mn3+
0.300000 1.000000 0.333333 Mn3+
0.300000 0.500000 0.333333 Mn3+
0.900000 1.000000 0.333333 Mn3+
0.900000 0.500000 0.333333 Mn3+
0.900000 0.062500 0.333333 Mn3+
0.900000 0.562500 0.333333 Mn3+
0.100000 0.125000 0.333333 Mn3+
0.100000 0.625000 0.333333 Mn3+
0.200000 0.125000 0.333333 Mn3+
0.200000 0.625000 0.333333 Mn3+
0.400000 0.125000 0.333333 Mn3+
0.400000 0.625000 0.333333 Mn3+
0.800000 0.125000 0.333333 Mn3+
0.800000 0.625000 0.333333 Mn3+
0.200000 0.187500 0.333333 Mn3+
0.200000 0.687500 0.333333 Mn3+
0.500000 0.187500 0.333333 Mn3+
0.500000 0.687500 0.333333 Mn3+
0.700000 0.187500 0.333333 Mn3+
0.700000 0.687500 0.333333 Mn3+
0.000000 0.250000 0.333333 Mn3+
0.000000 0.750000 0.333333 Mn3+
0.300000 0.250000 0.333333 Mn3+
0.300000 0.750000 0.333333 Mn3+
0.300000 0.312500 0.333333 Mn3+
0.300000 0.812500 0.333333 Mn3+
0.600000 0.312500 0.333333 Mn3+
0.600000 0.812500 0.333333 Mn3+
0.000000 0.375000 0.333333 Mn3+
0.000000 0.875000 0.333333 Mn3+
0.000000 0.437500 0.333333 Mn3+
0.000000 0.937500 0.333333 Mn3+
0.100000 0.437500 0.333333 Mn3+
0.100000 0.937500 0.333333 Mn3+
0.400000 0.437500 0.333333 Mn3+
0.400000 0.937500 0.333333 Mn3+
0.800000 0.437500 0.333333 Mn3+
0.800000 0.937500 0.333333 Mn3+
0.100000 1.000000 0.500000 Mn3+
0.100000 0.500000 0.500000 Mn3+
0.400000 1.000000 0.500000 Mn3+
0.400000 0.500000 0.500000 Mn3+
0.000000 0.062500 0.500000 Mn3+
0.000000 0.562500 0.500000 Mn3+
0.000000 0.125000 0.500000 Mn3+
0.000000 0.625000 0.500000 Mn3+
0.200000 0.125000 0.500000 Mn3+
0.200000 0.625000 0.500000 Mn3+
0.600000 0.125000 0.500000 Mn3+
0.600000 0.625000 0.500000 Mn3+
0.700000 0.125000 0.500000 Mn3+
0.700000 0.625000 0.500000 Mn3+
0.800000 0.125000 0.500000 Mn3+
0.800000 0.625000 0.500000 Mn3+
0.500000 0.187500 0.500000 Mn3+
0.500000 0.687500 0.500000 Mn3+
0.500000 0.250000 0.500000 Mn3+
0.500000 0.750000 0.500000 Mn3+
0.200000 0.375000 0.500000 Mn3+
0.200000 0.875000 0.500000 Mn3+
0.900000 0.375000 0.500000 Mn3+
0.900000 0.875000 0.500000 Mn3+
0.000000 0.437500 0.500000 Mn3+
0.000000 0.937500 0.500000 Mn3+
0.100000 0.437500 0.500000 Mn3+
0.100000 0.937500 0.500000 Mn3+
0.400000 0.437500 0.500000 Mn3+
0.400000 0.937500 0.500000 Mn3+
0.100000 1.000000 0.666667 Mn3+
0.100000 0.500000 0.666667 Mn3+
0.200000 1.000000 0.666667 Mn3+
0.200000 0.500000 0.666667 Mn3+
0.200000 0.125000 0.666667 Mn3+
0.200000 0.625000 0.666667 Mn3+
0.500000 0.125000 0.666667 Mn3+
0.500000 0.625000 0.666667 Mn3+
0.300000 0.187500 0.666667 Mn3+
0.300000 0.687500 0.666667 Mn3+
0.600000 0.187500 0.666667 Mn3+
0.600000 0.687500 0.666667 Mn3+
0.400000 0.250000 0.666667 Mn3+
0.400000 0.750000 0.666667 Mn3+
0.900000 0.250000 0.666667 Mn3+
0.900000 0.750000 0.666667 Mn3+
0.000000 0.312500 0.666667 Mn3+
0.000000 0.812500 0.666667 Mn3+
0.300000 0.312500 0.666667 Mn3+
0.300000 0.812500 0.666667 Mn3+
0.000000 0.437500 0.666667 Mn3+
0.000000 0.937500 0.666667 Mn3+
0.100000 0.437500 0.666667 Mn3+
0.100000 0.937500 0.666667 Mn3+
0.200000 0.437500 0.666667 Mn3+
0.200000 0.937500 0.666667 Mn3+
0.500000 0.437500 0.666667 Mn3+
0.500000 0.937500 0.666667 Mn3+
0.600000 0.437500 0.666667 Mn3+
0.600000 0.937500 0.666667 Mn3+
0.800000 1.000000 0.833333 Mn3+
0.800000 0.500000 0.833333 Mn3+
0.100000 0.062500 0.833333 Mn3+
0.100000 0.562500 0.833333 Mn3+
0.200000 0.062500 0.833333 Mn3+
0.200000 0.562500 0.833333 Mn3+
0.300000 0.062500 0.833333 Mn3+
0.300000 0.562500 0.833333 Mn3+
0.800000 0.125000 0.833333 Mn3+
0.800000 0.625000 0.833333 Mn3+
0.000000 0.187500 0.833333 Mn3+
0.000000 0.687500 0.833333 Mn3+
0.200000 0.187500 0.833333 Mn3+
0.200000 0.687500 0.833333 Mn3+