Li864 Ti288 Mn288 O1440
1.0
10.287857 -14.549227 -17.819091
34.292856 24.248712 0.000000
10.287857 -14.549227 17.819091
Li Ti Mn O
864 288 288 1440
direct
0.833333 0.000000 1.000000 Li+
0.833333 0.500000 1.000000 Li+
0.916667 0.000000 0.083333 Li+
0.916667 0.500000 0.083333 Li+
0.666667 0.000000 1.000000 Li+
0.666667 0.500000 1.000000 Li+
0.750000 0.000000 0.083333 Li+
0.750000 0.500000 0.083333 Li+
0.916667 0.000000 0.250000 Li+
0.916667 0.500000 0.250000 Li+
0.750000 0.050000 1.000000 Li+
0.750000 0.550000 1.000000 Li+
0.833333 0.050000 0.083333 Li+
0.833333 0.550000 0.083333 Li+
0.916667 0.050000 0.166667 Li+
0.916667 0.550000 0.166667 Li+
0.833333 0.100000 1.000000 Li+
0.833333 0.600000 1.000000 Li+
0.916667 0.150000 0.000000 Li+
0.916667 0.650000 0.000000 Li+
0.500000 0.000000 1.000000 Li+
0.500000 0.500000 1.000000 Li+
0.666667 0.000000 0.166667 Li+
0.666667 0.500000 0.166667 Li+
0.833333 0.000000 0.333333 Li+
0.833333 0.500000 0.333333 Li+
0.750000 0.050000 0.166667 Li+
0.750000 0.550000 0.166667 Li+
0.916667 0.050000 0.333333 Li+
0.916667 0.550000 0.333333 Li+
0.666667 0.100000 0.000000 Li+
0.666667 0.600000 1.000000 Li+
0.833333 0.100000 0.166667 Li+
0.833333 0.600000 0.166667 Li+
0.916667 0.100000 0.250000 Li+
0.916667 0.600000 0.250000 Li+
0.833333 0.150000 0.083333 Li+
0.833333 0.650000 0.083333 Li+
0.916667 0.200000 0.083333 Li+
0.916667 0.700000 0.083333 Li+
0.333333 0.000000 0.000000 Li+
0.333333 0.500000 1.000000 Li+
0.416667 0.000000 0.083333 Li+
0.416667 0.500000 0.083333 Li+
0.583333 0.000000 0.250000 Li+
0.583333 0.500000 0.250000 Li+
0.666667 0.000000 0.333333 Li+
0.666667 0.500000 0.333333 Li+
0.750000 0.000000 0.416667 Li+
0.750000 0.500000 0.416667 Li+
0.916667 0.000000 0.583333 Li+
0.916667 0.500000 0.583333 Li+
0.500000 0.050000 0.083333 Li+
0.500000 0.550000 0.083333 Li+
0.583333 0.050000 0.166667 Li+
0.583333 0.550000 0.166667 Li+
0.666667 0.050000 0.250000 Li+
0.666667 0.550000 0.250000 Li+
0.750000 0.050000 0.333333 Li+
0.750000 0.550000 0.333333 Li+
0.833333 0.050000 0.416667 Li+
0.833333 0.550000 0.416667 Li+
0.916667 0.050000 0.500000 Li+
0.916667 0.550000 0.500000 Li+
0.500000 0.100000 0.000000 Li+
0.500000 0.600000 1.000000 Li+
0.583333 0.100000 0.083333 Li+
0.583333 0.600000 0.083333 Li+
0.750000 0.100000 0.250000 Li+
0.750000 0.600000 0.250000 Li+
0.833333 0.100000 0.333333 Li+
0.833333 0.600000 0.333333 Li+
0.666667 0.150000 0.083333 Li+
0.666667 0.650000 0.083333 Li+
0.750000 0.150000 0.166667 Li+
0.750000 0.650000 0.166667 Li+
0.916667 0.150000 0.333333 Li+
0.916667 0.650000 0.333333 Li+
0.666667 0.200000 0.000000 Li+
0.666667 0.700000 1.000000 Li+
0.833333 0.200000 0.166667 Li+
0.833333 0.700000 0.166667 Li+
0.916667 0.200000 0.250000 Li+
0.916667 0.700000 0.250000 Li+
0.750000 0.250000 1.000000 Li+
0.750000 0.750000 1.000000 Li+
0.833333 0.250000 0.083333 Li+
0.833333 0.750000 0.083333 Li+
0.833333 0.300000 1.000000 Li+
0.833333 0.800000 1.000000 Li+
0.916667 0.350000 1.000000 Li+
0.916667 0.850000 0.000000 Li+
0.166667 0.000000 0.000000 Li+
0.166667 0.500000 1.000000 Li+
0.333333 0.000000 0.166667 Li+
0.333333 0.500000 0.166667 Li+
0.500000 0.000000 0.333333 Li+
0.500000 0.500000 0.333333 Li+
0.583333 0.000000 0.416667 Li+
0.583333 0.500000 0.416667 Li+
0.833333 0.000000 0.666667 Li+
0.833333 0.500000 0.666667 Li+
0.916667 0.000000 0.750000 Li+
0.916667 0.500000 0.750000 Li+
0.250000 0.050000 0.000000 Li+
0.250000 0.550000 0.000000 Li+
0.333333 0.050000 0.083333 Li+
0.333333 0.550000 0.083333 Li+
0.416667 0.050000 0.166667 Li+
0.416667 0.550000 0.166667 Li+
0.750000 0.050000 0.500000 Li+
0.750000 0.550000 0.500000 Li+
0.500000 0.100000 0.166667 Li+
0.500000 0.600000 0.166667 Li+
0.583333 0.100000 0.250000 Li+
0.583333 0.600000 0.250000 Li+
0.666667 0.100000 0.333333 Li+
0.666667 0.600000 0.333333 Li+
0.833333 0.100000 0.500000 Li+
0.833333 0.600000 0.500000 Li+
0.916667 0.100000 0.583333 Li+
0.916667 0.600000 0.583333 Li+
0.416667 0.150000 0.000000 Li+
0.416667 0.650000 1.000000 Li+
0.666667 0.150000 0.250000 Li+
0.666667 0.650000 0.250000 Li+
0.833333 0.150000 0.416667 Li+
0.833333 0.650000 0.416667 Li+
0.500000 0.200000 1.000000 Li+
0.500000 0.700000 1.000000 Li+
0.583333 0.200000 0.083333 Li+
0.583333 0.700000 0.083333 Li+
0.750000 0.200000 0.250000 Li+
0.750000 0.700000 0.250000 Li+
0.916667 0.200000 0.416667 Li+
0.916667 0.700000 0.416667 Li+
0.666667 0.250000 0.083333 Li+
0.666667 0.750000 0.083333 Li+
0.750000 0.250000 0.166667 Li+
0.750000 0.750000 0.166667 Li+
0.916667 0.250000 0.333333 Li+
0.916667 0.750000 0.333333 Li+
0.833333 0.300000 0.166667 Li+
0.833333 0.800000 0.166667 Li+
0.916667 0.300000 0.250000 Li+
0.916667 0.800000 0.250000 Li+
0.750000 0.350000 1.000000 Li+
0.750000 0.850000 1.000000 Li+
0.833333 0.400000 1.000000 Li+
0.833333 0.900000 1.000000 Li+
0.916667 0.400000 0.083333 Li+
0.916667 0.900000 0.083333 Li+
0.916667 0.450000 1.000000 Li+
0.916667 0.950000 1.000000 Li+
0.250000 0.000000 0.250000 Li+
0.250000 0.500000 0.250000 Li+
0.333333 0.000000 0.333333 Li+
0.333333 0.500000 0.333333 Li+
0.416667 0.000000 0.416667 Li+
0.416667 0.500000 0.416667 Li+
0.583333 0.000000 0.583333 Li+
0.583333 0.500000 0.583333 Li+
0.916667 0.000000 0.916667 Li+
0.916667 0.500000 0.916667 Li+
0.083333 0.050000 1.000000 Li+
0.083333 0.550000 1.000000 Li+
0.166667 0.050000 0.083333 Li+
0.166667 0.550000 0.083333 Li+
0.333333 0.050000 0.250000 Li+
0.333333 0.550000 0.250000 Li+
0.416667 0.050000 0.333333 Li+
0.416667 0.550000 0.333333 Li+
0.500000 0.050000 0.416667 Li+
0.500000 0.550000 0.416667 Li+
0.666667 0.050000 0.583333 Li+
0.666667 0.550000 0.583333 Li+
0.750000 0.050000 0.666667 Li+
0.750000 0.550000 0.666667 Li+
0.916667 0.050000 0.833333 Li+
0.916667 0.550000 0.833333 Li+
0.250000 0.100000 0.083333 Li+
0.250000 0.600000 0.083333 Li+
0.333333 0.100000 0.166667 Li+
0.333333 0.600000 0.166667 Li+
0.500000 0.100000 0.333333 Li+
0.500000 0.600000 0.333333 Li+
0.666667 0.100000 0.500000 Li+
0.666667 0.600000 0.500000 Li+
0.833333 0.100000 0.666667 Li+
0.833333 0.600000 0.666667 Li+
0.916667 0.100000 0.750000 Li+
0.916667 0.600000 0.750000 Li+
0.250000 0.150000 1.000000 Li+
0.250000 0.650000 1.000000 Li+
0.333333 0.150000 0.083333 Li+
0.333333 0.650000 0.083333 Li+
0.416667 0.150000 0.166667 Li+
0.416667 0.650000 0.166667 Li+
0.500000 0.150000 0.250000 Li+
0.500000 0.650000 0.250000 Li+
0.583333 0.150000 0.333333 Li+
0.583333 0.650000 0.333333 Li+
0.750000 0.150000 0.500000 Li+
0.750000 0.650000 0.500000 Li+
0.333333 0.200000 1.000000 Li+
0.333333 0.700000 1.000000 Li+
0.500000 0.200000 0.166667 Li+
0.500000 0.700000 0.166667 Li+
0.583333 0.200000 0.250000 Li+
0.583333 0.700000 0.250000 Li+
0.750000 0.200000 0.416667 Li+
0.750000 0.700000 0.416667 Li+
0.916667 0.200000 0.583333 Li+
0.916667 0.700000 0.583333 Li+
0.416667 0.250000 0.000000 Li+
0.416667 0.750000 1.000000 Li+
0.666667 0.250000 0.250000 Li+
0.666667 0.750000 0.250000 Li+
0.750000 0.250000 0.333333 Li+
0.750000 0.750000 0.333333 Li+
0.833333 0.250000 0.416667 Li+
0.833333 0.750000 0.416667 Li+
0.916667 0.250000 0.500000 Li+
0.916667 0.750000 0.500000 Li+
0.583333 0.300000 0.083333 Li+
0.583333 0.800000 0.083333 Li+
0.583333 0.350000 1.000000 Li+
0.583333 0.850000 1.000000 Li+
0.666667 0.350000 0.083333 Li+
0.666667 0.850000 0.083333 Li+
0.750000 0.350000 0.166667 Li+
0.750000 0.850000 0.166667 Li+
0.833333 0.350000 0.250000 Li+
0.833333 0.850000 0.250000 Li+
0.916667 0.350000 0.333333 Li+
0.916667 0.850000 0.333333 Li+
0.666667 0.400000 1.000000 Li+
0.666667 0.900000 1.000000 Li+
0.833333 0.400000 0.166667 Li+
0.833333 0.900000 0.166667 Li+
0.916667 0.400000 0.250000 Li+
0.916667 0.900000 0.250000 Li+
0.833333 0.450000 0.083333 Li+
0.833333 0.950000 0.083333 Li+
0.000000 0.000000 0.166667 Li+
1.000000 0.500000 0.166667 Li+
0.083333 0.000000 0.250000 Li+
0.083333 0.500000 0.250000 Li+
0.166667 0.000000 0.333333 Li+
0.166667 0.500000 0.333333 Li+
0.333333 0.000000 0.500000 Li+
0.333333 0.500000 0.500000 Li+
0.416667 0.000000 0.583333 Li+
0.416667 0.500000 0.583333 Li+
0.500000 0.000000 0.666667 Li+
0.500000 0.500000 0.666667 Li+
0.583333 0.000000 0.750000 Li+
0.583333 0.500000 0.750000 Li+
0.666667 0.000000 0.833333 Li+
0.666667 0.500000 0.833333 Li+
0.750000 0.000000 0.916667 Li+
0.750000 0.500000 0.916667 Li+
0.083333 0.050000 0.166667 Li+
0.083333 0.550000 0.166667 Li+
0.250000 0.050000 0.333333 Li+
0.250000 0.550000 0.333333 Li+
0.416667 0.050000 0.500000 Li+
0.416667 0.550000 0.500000 Li+
0.666667 0.050000 0.750000 Li+
0.666667 0.550000 0.750000 Li+
0.750000 0.050000 0.833333 Li+
0.750000 0.550000 0.833333 Li+
1.000000 0.100000 1.000000 Li+
1.000000 0.600000 1.000000 Li+
0.166667 0.100000 0.166667 Li+
0.166667 0.600000 0.166667 Li+
0.250000 0.100000 0.250000 Li+
0.250000 0.600000 0.250000 Li+
0.583333 0.100000 0.583333 Li+
0.583333 0.600000 0.583333 Li+
0.833333 0.100000 0.833333 Li+
0.833333 0.600000 0.833333 Li+
0.083333 0.150000 1.000000 Li+
0.083333 0.650000 1.000000 Li+
0.500000 0.150000 0.416667 Li+
0.500000 0.650000 0.416667 Li+
0.583333 0.150000 0.500000 Li+
0.583333 0.650000 0.500000 Li+
0.750000 0.150000 0.666667 Li+
0.750000 0.650000 0.666667 Li+
0.916667 0.150000 0.833333 Li+
0.916667 0.650000 0.833333 Li+
0.166667 0.200000 0.000000 Li+
0.166667 0.700000 0.000000 Li+
0.250000 0.200000 0.083333 Li+
0.250000 0.700000 0.083333 Li+
0.416667 0.200000 0.250000 Li+
0.416667 0.700000 0.250000 Li+
0.583333 0.200000 0.416667 Li+
0.583333 0.700000 0.416667 Li+
0.666667 0.200000 0.500000 Li+
0.666667 0.700000 0.500000 Li+
0.750000 0.200000 0.583333 Li+
0.750000 0.700000 0.583333 Li+
0.833333 0.200000 0.666667 Li+
0.833333 0.700000 0.666667 Li+
0.916667 0.200000 0.750000 Li+
0.916667 0.700000 0.750000 Li+
0.333333 0.250000 0.083333 Li+
0.333333 0.750000 0.083333 Li+
0.416667 0.250000 0.166667 Li+
0.416667 0.750000 0.166667 Li+
0.500000 0.250000 0.250000 Li+
0.500000 0.750000 0.250000 Li+
0.583333 0.250000 0.333333 Li+
0.583333 0.750000 0.333333 Li+
0.833333 0.250000 0.583333 Li+
0.833333 0.750000 0.583333 Li+
0.333333 0.300000 0.000000 Li+
0.333333 0.800000 0.000000 Li+
0.500000 0.300000 0.166667 Li+
0.500000 0.800000 0.166667 Li+
0.583333 0.300000 0.250000 Li+
0.583333 0.800000 0.250000 Li+
0.666667 0.300000 0.333333 Li+
0.666667 0.800000 0.333333 Li+
0.750000 0.300000 0.416667 Li+
0.750000 0.800000 0.416667 Li+
0.833333 0.300000 0.500000 Li+
0.833333 0.800000 0.500000 Li+
0.916667 0.300000 0.583333 Li+
0.916667 0.800000 0.583333 Li+
0.416667 0.350000 0.000000 Li+
0.416667 0.850000 1.000000 Li+
0.500000 0.350000 0.083333 Li+
0.500000 0.850000 0.083333 Li+
0.666667 0.350000 0.250000 Li+
0.666667 0.850000 0.250000 Li+
0.750000 0.350000 0.333333 Li+
0.750000 0.850000 0.333333 Li+
0.833333 0.350000 0.416667 Li+
0.833333 0.850000 0.416667 Li+
0.916667 0.350000 0.500000 Li+
0.916667 0.850000 0.500000 Li+
0.583333 0.400000 0.083333 Li+
0.583333 0.900000 0.083333 Li+
0.916667 0.400000 0.416667 Li+
0.916667 0.900000 0.416667 Li+
0.666667 0.450000 0.083333 Li+
0.666667 0.950000 0.083333 Li+
0.750000 0.450000 0.166667 Li+
0.750000 0.950000 0.166667 Li+
0.833333 0.450000 0.250000 Li+
0.833333 0.950000 0.250000 Li+
0.000000 0.000000 0.333333 Li+
1.000000 0.500000 0.333333 Li+
0.166667 0.000000 0.500000 Li+
0.166667 0.500000 0.500000 Li+
0.250000 0.000000 0.583333 Li+
0.250000 0.500000 0.583333 Li+
0.333333 0.000000 0.666667 Li+
0.333333 0.500000 0.666667 Li+
0.416667 0.000000 0.750000 Li+
0.416667 0.500000 0.750000 Li+
0.583333 0.000000 0.916667 Li+
0.583333 0.500000 0.916667 Li+
0.083333 0.050000 0.333333 Li+
0.083333 0.550000 0.333333 Li+
0.166667 0.050000 0.416667 Li+
0.166667 0.550000 0.416667 Li+
0.416667 0.050000 0.666667 Li+
0.416667 0.550000 0.666667 Li+
0.500000 0.050000 0.750000 Li+
0.500000 0.550000 0.750000 Li+
1.000000 0.100000 0.166667 Li+
1.000000 0.600000 0.166667 Li+
0.083333 0.100000 0.250000 Li+
0.083333 0.600000 0.250000 Li+
0.250000 0.100000 0.416667 Li+
0.250000 0.600000 0.416667 Li+
0.333333 0.100000 0.500000 Li+
0.333333 0.600000 0.500000 Li+
0.416667 0.100000 0.583333 Li+
0.416667 0.600000 0.583333 Li+
0.500000 0.100000 0.666667 Li+
0.500000 0.600000 0.666667 Li+
0.666667 0.100000 0.833333 Li+
0.666667 0.600000 0.833333 Li+
0.750000 0.100000 0.916667 Li+
0.750000 0.600000 0.916667 Li+
1.000000 0.150000 0.083333 Li+
1.000000 0.650000 0.083333 Li+
0.083333 0.150000 0.166667 Li+
0.083333 0.650000 0.166667 Li+
0.166667 0.150000 0.250000 Li+
0.166667 0.650000 0.250000 Li+
0.250000 0.150000 0.333333 Li+
0.250000 0.650000 0.333333 Li+
0.333333 0.150000 0.416667 Li+
0.333333 0.650000 0.416667 Li+
0.583333 0.150000 0.666667 Li+
0.583333 0.650000 0.666667 Li+
0.666667 0.150000 0.750000 Li+
0.666667 0.650000 0.750000 Li+
0.833333 0.150000 0.916667 Li+
0.833333 0.650000 0.916667 Li+
0.166667 0.200000 0.166667 Li+
0.166667 0.700000 0.166667 Li+
0.333333 0.200000 0.333333 Li+
0.333333 0.700000 0.333333 Li+
0.500000 0.200000 0.500000 Li+
0.500000 0.700000 0.500000 Li+
0.916667 0.200000 0.916667 Li+
0.916667 0.700000 0.916667 Li+
0.083333 0.250000 1.000000 Li+
0.083333 0.750000 1.000000 Li+
0.166667 0.250000 0.083333 Li+
0.166667 0.750000 0.083333 Li+
0.333333 0.250000 0.250000 Li+
0.333333 0.750000 0.250000 Li+
0.666667 0.250000 0.583333 Li+
0.666667 0.750000 0.583333 Li+
0.750000 0.250000 0.666667 Li+
0.750000 0.750000 0.666667 Li+
0.833333 0.250000 0.750000 Li+
0.833333 0.750000 0.750000 Li+
0.916667 0.250000 0.833333 Li+
0.916667 0.750000 0.833333 Li+
0.250000 0.300000 0.083333 Li+
0.250000 0.800000 0.083333 Li+
0.500000 0.300000 0.333333 Li+
0.500000 0.800000 0.333333 Li+
0.666667 0.300000 0.500000 Li+
0.666667 0.800000 0.500000 Li+
0.916667 0.300000 0.750000 Li+
0.916667 0.800000 0.750000 Li+
0.250000 0.350000 0.000000 Li+
0.250000 0.850000 1.000000 Li+
0.416667 0.350000 0.166667 Li+
0.416667 0.850000 0.166667 Li+
0.916667 0.350000 0.666667 Li+
0.916667 0.850000 0.666667 Li+
0.416667 0.400000 0.083333 Li+
0.416667 0.900000 0.083333 Li+
0.583333 0.400000 0.250000 Li+
0.583333 0.900000 0.250000 Li+
0.666667 0.400000 0.333333 Li+
0.666667 0.900000 0.333333 Li+
0.833333 0.400000 0.500000 Li+
0.833333 0.900000 0.500000 Li+
0.916667 0.400000 0.583333 Li+
0.916667 0.900000 0.583333 Li+
0.500000 0.450000 0.083333 Li+
0.500000 0.950000 0.083333 Li+
0.583333 0.450000 0.166667 Li+
0.583333 0.950000 0.166667 Li+
0.750000 0.450000 0.333333 Li+
0.750000 0.950000 0.333333 Li+
0.833333 0.450000 0.416667 Li+
0.833333 0.950000 0.416667 Li+
1.000000 0.000000 0.500000 Li+
1.000000 0.500000 0.500000 Li+
0.250000 0.000000 0.750000 Li+
0.250000 0.500000 0.750000 Li+
0.166667 0.050000 0.583333 Li+
0.166667 0.550000 0.583333 Li+
0.250000 0.050000 0.666667 Li+
0.250000 0.550000 0.666667 Li+
0.416667 0.050000 0.833333 Li+
0.416667 0.550000 0.833333 Li+
0.500000 0.050000 0.916667 Li+
0.500000 0.550000 0.916667 Li+
0.083333 0.100000 0.416667 Li+
0.083333 0.600000 0.416667 Li+
0.166667 0.100000 0.500000 Li+
0.166667 0.600000 0.500000 Li+
0.333333 0.100000 0.666667 Li+
0.333333 0.600000 0.666667 Li+
0.583333 0.100000 0.916667 Li+
0.583333 0.600000 0.916667 Li+
1.000000 0.150000 0.250000 Li+
1.000000 0.650000 0.250000 Li+
0.083333 0.150000 0.333333 Li+
0.083333 0.650000 0.333333 Li+
0.250000 0.150000 0.500000 Li+
0.250000 0.650000 0.500000 Li+
0.333333 0.150000 0.583333 Li+
0.333333 0.650000 0.583333 Li+
0.416667 0.150000 0.666667 Li+
0.416667 0.650000 0.666667 Li+
0.500000 0.150000 0.750000 Li+
0.500000 0.650000 0.750000 Li+
0.583333 0.150000 0.833333 Li+
0.583333 0.650000 0.833333 Li+
1.000000 0.200000 0.166667 Li+
1.000000 0.700000 0.166667 Li+
0.166667 0.200000 0.333333 Li+
0.166667 0.700000 0.333333 Li+
0.416667 0.200000 0.583333 Li+
0.416667 0.700000 0.583333 Li+
0.500000 0.200000 0.666667 Li+
0.500000 0.700000 0.666667 Li+
0.583333 0.200000 0.750000 Li+
0.583333 0.700000 0.750000 Li+
0.666667 0.200000 0.833333 Li+
0.666667 0.700000 0.833333 Li+
0.750000 0.200000 0.916667 Li+
0.750000 0.700000 0.916667 Li+
1.000000 0.250000 0.083333 Li+
1.000000 0.750000 0.083333 Li+
0.083333 0.250000 0.166667 Li+
0.083333 0.750000 0.166667 Li+
0.250000 0.250000 0.333333 Li+
0.250000 0.750000 0.333333 Li+
0.333333 0.250000 0.416667 Li+
0.333333 0.750000 0.416667 Li+
0.416667 0.250000 0.500000 Li+
0.416667 0.750000 0.500000 Li+
0.500000 0.250000 0.583333 Li+
0.500000 0.750000 0.583333 Li+
0.583333 0.250000 0.666667 Li+
0.583333 0.750000 0.666667 Li+
0.750000 0.250000 0.833333 Li+
0.750000 0.750000 0.833333 Li+
0.833333 0.250000 0.916667 Li+
0.833333 0.750000 0.916667 Li+
1.000000 0.300000 1.000000 Li+
1.000000 0.800000 1.000000 Li+
0.166667 0.300000 0.166667 Li+
0.166667 0.800000 0.166667 Li+
0.250000 0.300000 0.250000 Li+
0.250000 0.800000 0.250000 Li+
0.333333 0.300000 0.333333 Li+
0.333333 0.800000 0.333333 Li+
0.416667 0.300000 0.416667 Li+
0.416667 0.800000 0.416667 Li+
0.500000 0.300000 0.500000 Li+
0.500000 0.800000 0.500000 Li+
0.583333 0.300000 0.583333 Li+
0.583333 0.800000 0.583333 Li+
0.666667 0.300000 0.666667 Li+
0.666667 0.800000 0.666667 Li+
0.833333 0.300000 0.833333 Li+
0.833333 0.800000 0.833333 Li+
0.916667 0.300000 0.916667 Li+
0.916667 0.800000 0.916667 Li+
0.166667 0.350000 0.083333 Li+
0.166667 0.850000 0.083333 Li+
0.333333 0.350000 0.250000 Li+
0.333333 0.850000 0.250000 Li+
0.416667 0.350000 0.333333 Li+
0.416667 0.850000 0.333333 Li+
0.500000 0.350000 0.416667 Li+
0.500000 0.850000 0.416667 Li+
0.583333 0.350000 0.500000 Li+
0.583333 0.850000 0.500000 Li+
0.666667 0.350000 0.583333 Li+
0.666667 0.850000 0.583333 Li+
0.750000 0.350000 0.666667 Li+
0.750000 0.850000 0.666667 Li+
0.833333 0.350000 0.750000 Li+
0.833333 0.850000 0.750000 Li+
0.166667 0.400000 0.000000 Li+
0.166667 0.900000 1.000000 Li+
0.250000 0.400000 0.083333 Li+
0.250000 0.900000 0.083333 Li+
0.333333 0.400000 0.166667 Li+
0.333333 0.900000 0.166667 Li+
0.416667 0.400000 0.250000 Li+
0.416667 0.900000 0.250000 Li+
0.583333 0.400000 0.416667 Li+
0.583333 0.900000 0.416667 Li+
0.666667 0.400000 0.500000 Li+
0.666667 0.900000 0.500000 Li+
0.750000 0.400000 0.583333 Li+
0.750000 0.900000 0.583333 Li+
0.916667 0.400000 0.750000 Li+
0.916667 0.900000 0.750000 Li+
0.416667 0.450000 0.166667 Li+
0.416667 0.950000 0.166667 Li+
0.500000 0.450000 0.250000 Li+
0.500000 0.950000 0.250000 Li+
0.583333 0.450000 0.333333 Li+
0.583333 0.950000 0.333333 Li+
0.750000 0.450000 0.500000 Li+
0.750000 0.950000 0.500000 Li+
0.833333 0.450000 0.583333 Li+
0.833333 0.950000 0.583333 Li+
1.000000 0.000000 0.666667 Li+
1.000000 0.500000 0.666667 Li+
0.083333 0.000000 0.750000 Li+
0.083333 0.500000 0.750000 Li+
0.166667 0.000000 0.833333 Li+
0.166667 0.500000 0.833333 Li+
1.000000 0.050000 0.583333 Li+
1.000000 0.550000 0.583333 Li+
0.083333 0.050000 0.666667 Li+
0.083333 0.550000 0.666667 Li+
0.166667 0.050000 0.750000 Li+
0.166667 0.550000 0.750000 Li+
0.333333 0.050000 0.916667 Li+
0.333333 0.550000 0.916667 Li+
0.000000 0.100000 0.500000 Li+
1.000000 0.600000 0.500000 Li+
0.083333 0.100000 0.583333 Li+
0.083333 0.600000 0.583333 Li+
0.250000 0.100000 0.750000 Li+
0.250000 0.600000 0.750000 Li+
0.333333 0.100000 0.833333 Li+
0.333333 0.600000 0.833333 Li+
0.416667 0.100000 0.916667 Li+
0.416667 0.600000 0.916667 Li+
0.083333 0.150000 0.500000 Li+
0.083333 0.650000 0.500000 Li+
0.166667 0.150000 0.583333 Li+
0.166667 0.650000 0.583333 Li+
0.333333 0.150000 0.750000 Li+
0.333333 0.650000 0.750000 Li+
0.500000 0.150000 0.916667 Li+
0.500000 0.650000 0.916667 Li+
0.083333 0.200000 0.416667 Li+
0.083333 0.700000 0.416667 Li+
0.166667 0.200000 0.500000 Li+
0.166667 0.700000 0.500000 Li+
0.250000 0.200000 0.583333 Li+
0.250000 0.700000 0.583333 Li+
0.583333 0.200000 0.916667 Li+
0.583333 0.700000 0.916667 Li+
0.166667 0.250000 0.416667 Li+
0.166667 0.750000 0.416667 Li+
0.416667 0.250000 0.666667 Li+
0.416667 0.750000 0.666667 Li+
1.000000 0.300000 0.166667 Li+
1.000000 0.800000 0.166667 Li+
0.083333 0.300000 0.250000 Li+
0.083333 0.800000 0.250000 Li+
0.583333 0.300000 0.750000 Li+
0.583333 0.800000 0.750000 Li+
0.666667 0.300000 0.833333 Li+
0.666667 0.800000 0.833333 Li+
1.000000 0.350000 0.083333 Li+
1.000000 0.850000 0.083333 Li+
0.083333 0.350000 0.166667 Li+
0.083333 0.850000 0.166667 Li+
0.166667 0.350000 0.250000 Li+
0.166667 0.850000 0.250000 Li+
0.416667 0.350000 0.500000 Li+
0.416667 0.850000 0.500000 Li+
0.666667 0.350000 0.750000 Li+
0.666667 0.850000 0.750000 Li+
0.750000 0.350000 0.833333 Li+
0.750000 0.850000 0.833333 Li+
0.083333 0.400000 0.083333 Li+
0.083333 0.900000 0.083333 Li+
0.250000 0.400000 0.250000 Li+
0.250000 0.900000 0.250000 Li+
0.333333 0.400000 0.333333 Li+
0.333333 0.900000 0.333333 Li+
0.416667 0.400000 0.416667 Li+
0.416667 0.900000 0.416667 Li+
0.833333 0.400000 0.833333 Li+
0.833333 0.900000 0.833333 Li+
0.083333 0.450000 1.000000 Li+
0.083333 0.950000 1.000000 Li+
0.166667 0.450000 0.083333 Li+
0.166667 0.950000 0.083333 Li+
0.250000 0.450000 0.166667 Li+
0.250000 0.950000 0.166667 Li+
0.500000 0.450000 0.416667 Li+
0.500000 0.950000 0.416667 Li+
0.583333 0.450000 0.500000 Li+
0.583333 0.950000 0.500000 Li+
0.750000 0.450000 0.666667 Li+
0.750000 0.950000 0.666667 Li+
0.833333 0.450000 0.750000 Li+
0.833333 0.950000 0.750000 Li+
0.166667 0.050000 0.916667 Li+
0.166667 0.550000 0.916667 Li+
0.083333 0.100000 0.750000 Li+
0.083333 0.600000 0.750000 Li+
0.250000 0.100000 0.916667 Li+
0.250000 0.600000 0.916667 Li+
1.000000 0.150000 0.583333 Li+
1.000000 0.650000 0.583333 Li+
0.083333 0.150000 0.666667 Li+
0.083333 0.650000 0.666667 Li+
0.250000 0.150000 0.833333 Li+
0.250000 0.650000 0.833333 Li+
0.166667 0.200000 0.666667 Li+
0.166667 0.700000 0.666667 Li+
0.250000 0.200000 0.750000 Li+
0.250000 0.700000 0.750000 Li+
0.333333 0.200000 0.833333 Li+
0.333333 0.700000 0.833333 Li+
1.000000 0.250000 0.416667 Li+
1.000000 0.750000 0.416667 Li+
0.250000 0.250000 0.666667 Li+
0.250000 0.750000 0.666667 Li+
0.333333 0.250000 0.750000 Li+
0.333333 0.750000 0.750000 Li+
0.416667 0.250000 0.833333 Li+
0.416667 0.750000 0.833333 Li+
0.500000 0.250000 0.916667 Li+
0.500000 0.750000 0.916667 Li+
1.000000 0.300000 0.333333 Li+
1.000000 0.800000 0.333333 Li+
0.083333 0.300000 0.416667 Li+
0.083333 0.800000 0.416667 Li+
0.166667 0.300000 0.500000 Li+
0.166667 0.800000 0.500000 Li+
0.250000 0.300000 0.583333 Li+
0.250000 0.800000 0.583333 Li+
0.333333 0.300000 0.666667 Li+
0.333333 0.800000 0.666667 Li+
0.500000 0.300000 0.833333 Li+
0.500000 0.800000 0.833333 Li+
0.583333 0.300000 0.916667 Li+
0.583333 0.800000 0.916667 Li+
0.083333 0.350000 0.333333 Li+
0.083333 0.850000 0.333333 Li+
0.166667 0.350000 0.416667 Li+
0.166667 0.850000 0.416667 Li+
0.250000 0.350000 0.500000 Li+
0.250000 0.850000 0.500000 Li+
0.333333 0.350000 0.583333 Li+
0.333333 0.850000 0.583333 Li+
0.500000 0.350000 0.750000 Li+
0.500000 0.850000 0.750000 Li+
0.666667 0.350000 0.916667 Li+
0.666667 0.850000 0.916667 Li+
0.166667 0.400000 0.333333 Li+
0.166667 0.900000 0.333333 Li+
0.250000 0.400000 0.416667 Li+
0.250000 0.900000 0.416667 Li+
0.416667 0.400000 0.583333 Li+
0.416667 0.900000 0.583333 Li+
0.500000 0.400000 0.666667 Li+
0.500000 0.900000 0.666667 Li+
0.583333 0.400000 0.750000 Li+
0.583333 0.900000 0.750000 Li+
0.750000 0.400000 0.916667 Li+
0.750000 0.900000 0.916667 Li+
0.083333 0.450000 0.166667 Li+
0.083333 0.950000 0.166667 Li+
0.166667 0.450000 0.250000 Li+
0.166667 0.950000 0.250000 Li+
0.333333 0.450000 0.416667 Li+
0.333333 0.950000 0.416667 Li+
0.500000 0.450000 0.583333 Li+
0.500000 0.950000 0.583333 Li+
0.666667 0.450000 0.750000 Li+
0.666667 0.950000 0.750000 Li+
0.833333 0.450000 0.916667 Li+
0.833333 0.950000 0.916667 Li+
0.000000 0.050000 0.916667 Li+
0.000000 0.550000 0.916667 Li+
1.000000 0.100000 0.833333 Li+
1.000000 0.600000 0.833333 Li+
0.083333 0.100000 0.916667 Li+
0.083333 0.600000 0.916667 Li+
1.000000 0.150000 0.750000 Li+
1.000000 0.650000 0.750000 Li+
0.166667 0.150000 0.916667 Li+
0.166667 0.650000 0.916667 Li+
1.000000 0.200000 0.666667 Li+
1.000000 0.700000 0.666667 Li+
1.000000 0.250000 0.583333 Li+
1.000000 0.750000 0.583333 Li+
0.083333 0.250000 0.666667 Li+
0.083333 0.750000 0.666667 Li+
0.166667 0.250000 0.750000 Li+
0.166667 0.750000 0.750000 Li+
1.000000 0.300000 0.500000 Li+
1.000000 0.800000 0.500000 Li+
0.083333 0.300000 0.583333 Li+
0.083333 0.800000 0.583333 Li+
0.250000 0.300000 0.750000 Li+
0.250000 0.800000 0.750000 Li+
0.166667 0.350000 0.583333 Li+
0.166667 0.850000 0.583333 Li+
0.333333 0.350000 0.750000 Li+
0.333333 0.850000 0.750000 Li+
0.416667 0.350000 0.833333 Li+
0.416667 0.850000 0.833333 Li+
1.000000 0.400000 0.333333 Li+
1.000000 0.900000 0.333333 Li+
0.083333 0.400000 0.416667 Li+
0.083333 0.900000 0.416667 Li+
0.333333 0.400000 0.666667 Li+
0.333333 0.900000 0.666667 Li+
0.500000 0.400000 0.833333 Li+
0.500000 0.900000 0.833333 Li+
0.583333 0.400000 0.916667 Li+
0.583333 0.900000 0.916667 Li+
1.000000 0.450000 0.250000 Li+
1.000000 0.950000 0.250000 Li+
0.250000 0.450000 0.500000 Li+
0.250000 0.950000 0.500000 Li+
0.416667 0.450000 0.666667 Li+
0.416667 0.950000 0.666667 Li+
0.583333 0.450000 0.833333 Li+
0.583333 0.950000 0.833333 Li+
1.000000 0.200000 0.833333 Li+
0.000000 0.700000 0.833333 Li+
0.083333 0.250000 0.833333 Li+
0.083333 0.750000 0.833333 Li+
0.166667 0.250000 0.916667 Li+
0.166667 0.750000 0.916667 Li+
1.000000 0.300000 0.666667 Li+
1.000000 0.800000 0.666667 Li+
0.166667 0.300000 0.833333 Li+
0.166667 0.800000 0.833333 Li+
0.250000 0.300000 0.916667 Li+
0.250000 0.800000 0.916667 Li+
0.166667 0.350000 0.750000 Li+
0.166667 0.850000 0.750000 Li+
0.333333 0.350000 0.916667 Li+
0.333333 0.850000 0.916667 Li+
0.083333 0.400000 0.583333 Li+
0.083333 0.900000 0.583333 Li+
0.166667 0.400000 0.666667 Li+
0.166667 0.900000 0.666667 Li+
0.250000 0.400000 0.750000 Li+
0.250000 0.900000 0.750000 Li+
0.333333 0.400000 0.833333 Li+
0.333333 0.900000 0.833333 Li+
0.416667 0.400000 0.916667 Li+
0.416667 0.900000 0.916667 Li+
1.000000 0.450000 0.416667 Li+
1.000000 0.950000 0.416667 Li+
0.083333 0.450000 0.500000 Li+
0.083333 0.950000 0.500000 Li+
0.166667 0.450000 0.583333 Li+
0.166667 0.950000 0.583333 Li+
0.416667 0.450000 0.833333 Li+
0.416667 0.950000 0.833333 Li+
0.083333 0.300000 0.916667 Li+
0.083333 0.800000 0.916667 Li+
1.000000 0.350000 0.750000 Li+
1.000000 0.850000 0.750000 Li+
0.083333 0.350000 0.833333 Li+
0.083333 0.850000 0.833333 Li+
1.000000 0.400000 0.666667 Li+
1.000000 0.900000 0.666667 Li+
0.250000 0.400000 0.916667 Li+
0.250000 0.900000 0.916667 Li+
0.083333 0.450000 0.666667 Li+
0.083333 0.950000 0.666667 Li+
0.250000 0.450000 0.833333 Li+
0.250000 0.950000 0.833333 Li+
0.333333 0.450000 0.916667 Li+
0.333333 0.950000 0.916667 Li+
1.000000 0.350000 0.916667 Li+
0.000000 0.850000 0.916667 Li+
1.000000 0.400000 0.833333 Li+
1.000000 0.900000 0.833333 Li+
0.083333 0.400000 0.916667 Li+
0.083333 0.900000 0.916667 Li+
0.083333 0.450000 0.833333 Li+
0.083333 0.950000 0.833333 Li+
0.166667 0.450000 0.916667 Li+
0.166667 0.950000 0.916667 Li+
1.000000 0.450000 0.916667 Li+
1.000000 0.950000 0.916667 Li+
0.833333 0.000000 0.166667 Ti4+
0.833333 0.500000 0.166667 Ti4+
0.583333 0.000000 0.083333 Ti4+
0.583333 0.500000 0.083333 Ti4+
0.750000 0.000000 0.250000 Ti4+
0.750000 0.500000 0.250000 Ti4+
0.666667 0.050000 0.083333 Ti4+
0.666667 0.550000 0.083333 Ti4+
0.833333 0.050000 0.250000 Ti4+
0.833333 0.550000 0.250000 Ti4+
0.916667 0.150000 0.166667 Ti4+
0.916667 0.650000 0.166667 Ti4+
0.500000 0.000000 0.166667 Ti4+
0.500000 0.500000 0.166667 Ti4+
0.833333 0.000000 0.500000 Ti4+
0.833333 0.500000 0.500000 Ti4+
0.416667 0.050000 0.000000 Ti4+
0.416667 0.550000 0.000000 Ti4+
0.666667 0.100000 0.166667 Ti4+
0.666667 0.600000 0.166667 Ti4+
0.916667 0.100000 0.416667 Ti4+
0.916667 0.600000 0.416667 Ti4+
0.833333 0.150000 0.250000 Ti4+
0.833333 0.650000 0.250000 Ti4+
0.750000 0.200000 0.083333 Ti4+
0.750000 0.700000 0.083333 Ti4+
0.916667 0.250000 0.166667 Ti4+
0.916667 0.750000 0.166667 Ti4+
0.250000 0.000000 0.083333 Ti4+
0.250000 0.500000 0.083333 Ti4+
0.500000 0.050000 0.250000 Ti4+
0.500000 0.550000 0.250000 Ti4+
0.583333 0.050000 0.333333 Ti4+
0.583333 0.550000 0.333333 Ti4+
0.833333 0.050000 0.583333 Ti4+
0.833333 0.550000 0.583333 Ti4+
0.916667 0.050000 0.666667 Ti4+
0.916667 0.550000 0.666667 Ti4+
0.333333 0.100000 0.000000 Ti4+
0.333333 0.600000 0.000000 Ti4+
0.416667 0.100000 0.083333 Ti4+
0.416667 0.600000 0.083333 Ti4+
0.500000 0.150000 0.083333 Ti4+
0.500000 0.650000 0.083333 Ti4+
0.583333 0.150000 0.166667 Ti4+
0.583333 0.650000 0.166667 Ti4+
0.750000 0.150000 0.333333 Ti4+
0.750000 0.650000 0.333333 Ti4+
0.916667 0.150000 0.500000 Ti4+
0.916667 0.650000 0.500000 Ti4+
0.833333 0.200000 0.333333 Ti4+
0.833333 0.700000 0.333333 Ti4+
0.583333 0.250000 1.000000 Ti4+
0.583333 0.750000 1.000000 Ti4+
0.666667 0.300000 0.000000 Ti4+
0.666667 0.800000 0.000000 Ti4+
0.833333 0.350000 0.083333 Ti4+
0.833333 0.850000 0.083333 Ti4+
0.500000 0.000000 0.500000 Ti4+
0.500000 0.500000 0.500000 Ti4+
0.666667 0.000000 0.666667 Ti4+
0.666667 0.500000 0.666667 Ti4+
0.250000 0.050000 0.166667 Ti4+
0.250000 0.550000 0.166667 Ti4+
0.166667 0.100000 1.000000 Ti4+
0.166667 0.600000 1.000000 Ti4+
0.833333 0.200000 0.500000 Ti4+
0.833333 0.700000 0.500000 Ti4+
0.750000 0.300000 0.250000 Ti4+
0.750000 0.800000 0.250000 Ti4+
0.916667 0.300000 0.416667 Ti4+
0.916667 0.800000 0.416667 Ti4+
0.750000 0.400000 0.083333 Ti4+
0.750000 0.900000 0.083333 Ti4+
0.750000 0.450000 1.000000 Ti4+
0.750000 0.950000 1.000000 Ti4+
0.916667 0.450000 0.166667 Ti4+
0.916667 0.950000 0.166667 Ti4+
0.250000 0.000000 0.416667 Ti4+
0.250000 0.500000 0.416667 Ti4+
0.166667 0.050000 0.250000 Ti4+
0.166667 0.550000 0.250000 Ti4+
0.583333 0.050000 0.666667 Ti4+
0.583333 0.550000 0.666667 Ti4+
0.833333 0.050000 0.916667 Ti4+
0.833333 0.550000 0.916667 Ti4+
0.083333 0.100000 0.083333 Ti4+
0.083333 0.600000 0.083333 Ti4+
0.333333 0.100000 0.333333 Ti4+
0.333333 0.600000 0.333333 Ti4+
0.916667 0.100000 0.916667 Ti4+
0.916667 0.600000 0.916667 Ti4+
0.166667 0.150000 0.083333 Ti4+
0.166667 0.650000 0.083333 Ti4+
0.250000 0.150000 0.166667 Ti4+